     Program PWSCF v.7.2 starts on 30May2023 at 15: 4: 3

     Waiting for input...
     Reading input from standard input
Warning: card &CELL ignored
Warning: card / ignored

     Current dimensions of program PWSCF are:
     Max number of different atomic species (ntypx) = 10
     Max number of k-points (npk) =  40000
     Max angular momentum in pseudopotentials (lmaxx) =  4
     file Mn.pbesol-spn-rrkjus_psl.0.3.1.UPF: wavefunction(s)  3D renormalized
     Message from routine setup:
     using ibrav=0 with symmetry is DISCOURAGED, use correct ibrav instead

     R & G space division:  proc/nbgrp/npool/nimage =      28
     Subspace diagonalization in iterative solution of the eigenvalue problem:
     a serial algorithm will be used

     Using Slab Decomposition

     bravais-lattice index     =            0
     lattice parameter (alat)  =      16.7558  a.u.
     unit-cell volume          =     783.8099 (a.u.)^3
     number of atoms/cell      =            8
     number of atomic types    =            3
     number of electrons       =        86.00
     number of Kohn-Sham states=           52
     kinetic-energy cutoff     =      40.4242  Ry
     charge density cutoff     =     161.6969  Ry
     scf convergence threshold =      1.0E-06
     mixing beta               =       0.7000
     number of iterations used =            8  plain     mixing
     energy convergence thresh.=      1.0E-04
     force convergence thresh. =      1.0E-03
     Exchange-correlation= PBESOL
                           (   1   4  10   8   0   0   0)
     nstep                     =           50

     celldm(1)=  16.755834  celldm(2)=   0.000000  celldm(3)=   0.000000
     celldm(4)=   0.000000  celldm(5)=   0.000000  celldm(6)=   0.000000

     crystal axes: (cart. coord. in units of alat)
               a(1) = (   0.411174   0.712175   0.568983 )
               a(2) = (  -0.205587   0.356088   0.568983 )
               a(3) = (   0.000000   0.000000   0.568983 )

     reciprocal axes: (cart. coord. in units 2 pi/alat)
               b(1) = (  1.216029  0.702075  0.000000 )
               b(2) = ( -2.432058  1.404149  0.000000 )
               b(3) = (  1.216029 -2.106224  1.757520 )

     PseudoPot. # 1 for Ni read from file:
     /home/valmzztt/Intermetallic_alloys/pseudos/Ni.pbesol-spn-rrkjus_psl.1.0.0.UPF
     MD5 check sum: 6fc0a587bf949a08f2faed986b854013
     Pseudo is Ultrasoft + core correction, Zval = 18.0
     Generated using &quot;atomic&quot; code by A. Dal Corso  v.6.3
     Using radial grid of 1195 points,  6 beta functions with:
                l(1) =   0
                l(2) =   0
                l(3) =   1
                l(4) =   1
                l(5) =   2
                l(6) =   2
     Q(r) pseudized with 0 coefficients

     PseudoPot. # 2 for As read from file:
     /home/valmzztt/Intermetallic_alloys/pseudos/As.pbesol-n-rrkjus_psl.1.0.0.UPF
     MD5 check sum: 2fb13bbab3d0b4e108be5408f3d6fe7c
     Pseudo is Ultrasoft + core correction, Zval =  5.0
     Generated using &quot;atomic&quot; code by A. Dal Corso  v.6.3
     Using radial grid of 1209 points,  4 beta functions with:
                l(1) =   0
                l(2) =   0
                l(3) =   1
                l(4) =   1
     Q(r) pseudized with 0 coefficients

     PseudoPot. # 3 for Mn read from file:
     /home/valmzztt/Intermetallic_alloys/pseudos/Mn.pbesol-spn-rrkjus_psl.0.3.1.UPF
     MD5 check sum: 61e28eea34dae291f95a967fe31318f1
     Pseudo is Ultrasoft + core correction, Zval = 15.0
     Generated using &quot;atomic&quot; code by A. Dal Corso  v.6.3
     Using radial grid of 1187 points,  6 beta functions with:
                l(1) =   0
                l(2) =   0
                l(3) =   1
                l(4) =   1
                l(5) =   2
                l(6) =   2
     Q(r) pseudized with 0 coefficients

     atomic species   valence    mass     pseudopotential
        Ni            18.00    58.69340     Ni( 1.00)
        As             5.00    74.92159     As( 1.00)
        Mn            15.00    54.93804     Mn( 1.00)

      8 Sym. Ops., with inversion, found ( 4 have fractional translation)

   Cartesian axes

     site n.     atom                  positions (alat units)
         1           Ni  tau(   1) = (   0.0000000   0.0000000   0.0000000  )
         2           Ni  tau(   2) = (   0.0000000   0.0000000   0.2844917  )
         3           As  tau(   3) = (  -0.0000000   0.2373917   0.7112294  )
         4           As  tau(   4) = (   0.0000000   0.4747834   0.9957211  )
         5           Mn  tau(   5) = (   0.2055872   0.3560875   0.2844917  )
         6           Mn  tau(   6) = (   0.2055872   0.3560875   0.5689835  )
         7           As  tau(   7) = (   0.2055872   0.5934792   0.7112294  )
         8           As  tau(   8) = (   0.2055872   0.8308709   0.9957211  )

     number of k points=     1  Gaussian smearing, width (Ry)=  0.0147
                       cart. coord. in units 2pi/alat
        k(    1) = (   0.0000000   0.0000000   0.0000000), wk =   2.0000000

     Check: negative core charge=   -0.000056

     Initial potential from superposition of free atoms

     starting charge      85.9977, renormalised to      86.0000
     Starting wfcs are   56 randomized atomic wfcs

     Self-consistent Calculation

     iteration #  1     ecut=    40.42 Ry     beta= 0.70
     Davidson diagonalization with overlap
     ethr =  1.00E-02,  avg # of iterations =  2.0

     total energy              =   -1182.76843980 Ry
     estimated scf accuracy    <       4.67999117 Ry

[...]

     End of self-consistent calculation

          k = 0.0000 0.0000 0.0000 (  3355 PWs)   bands (ev):

   -90.3273 -90.3171 -65.4333 -65.3875 -50.5259 -50.4576 -50.3134 -50.2044
   -50.0768 -50.0448 -34.9729 -34.6167 -34.1678 -34.1256 -34.0832 -34.0344
    -1.1573   1.2511   1.8146   2.5613   6.3490   6.4166   8.8120   8.9188
     9.1601   9.2459   9.2675   9.4764   9.6352  10.1872  10.2144  10.6992
    10.8979  11.0007  11.4317  11.6135  11.7826  11.9592  12.0953  12.4413
    12.9403  13.4599  13.4622  13.4743  13.5093  13.5472  14.0970  15.6976
    15.8255  16.3420  16.4619  16.7320

     the Fermi energy is    13.4535 ev

!    total energy              =   -1186.35528596 Ry
     estimated scf accuracy    <       0.00000003 Ry
     smearing contrib. (-TS)   =      -0.03911371 Ry
     internal energy E=F+TS    =   -1186.31617225 Ry

     The total energy is F=E-TS. E is the sum of the following terms:
     one-electron contribution =    -814.67644224 Ry
     hartree contribution      =     449.77219238 Ry
     xc contribution           =    -169.36066078 Ry
     ewald contribution        =    -652.05126160 Ry

     convergence has been achieved in  18 iterations

     Forces acting on atoms (cartesian axes, Ry/au):

     atom    1 type  1   force =     0.00000000   -0.00000000    0.00000000
     atom    2 type  1   force =    -0.00000000    0.00000000    0.00000000
     atom    3 type  2   force =     0.01391786    0.00803548    0.00000000
     atom    4 type  2   force =     0.02787693    0.01609476    0.00000000
     atom    5 type  3   force =    -0.00000000    0.00000000    0.00000000
     atom    6 type  3   force =     0.00000000   -0.00000000    0.00000000
     atom    7 type  2   force =    -0.02787693   -0.01609476    0.00000000
     atom    8 type  2   force =    -0.01391786   -0.00803548    0.00000000
     The non-local contrib.  to forces
     atom    1 type  1   force =     0.00000000    0.00000000    0.00000000
     atom    2 type  1   force =     0.00000000    0.00000000    0.00000000
     atom    3 type  2   force =    -0.01351334   -0.00780193    0.00000000
     atom    4 type  2   force =    -0.02542872   -0.01468128    0.00000000
     atom    5 type  3   force =     0.00000000   -0.00000000    0.00000000
     atom    6 type  3   force =    -0.00000000    0.00000000    0.00000000
     atom    7 type  2   force =     0.02542872    0.01468128    0.00000000
     atom    8 type  2   force =     0.01351334    0.00780193    0.00000000
     The ionic contribution  to forces
     atom    1 type  1   force =    -0.00000000   -0.00000000    0.00000000
     atom    2 type  1   force =    -0.00000000   -0.00000000   -0.00000000
     atom    3 type  2   force =     1.83316713    1.05837933   -0.00000000
     atom    4 type  2   force =     1.83316682    1.05837951    0.00000000
     atom    5 type  3   force =     0.00000000    0.00000000    0.00000000
     atom    6 type  3   force =     0.00000000    0.00000000   -0.00000000
     atom    7 type  2   force =    -1.83316682   -1.05837951   -0.00000000
     atom    8 type  2   force =    -1.83316713   -1.05837933    0.00000000
     The local contribution  to forces
     atom    1 type  1   force =    -0.00000000    0.00000000    0.00000000
     atom    2 type  1   force =    -0.00000000    0.00000000   -0.00000000
     atom    3 type  2   force =    -1.81294483   -1.04670395   -0.00000000
     atom    4 type  2   force =    -1.78959007   -1.03322049    0.00000000
     atom    5 type  3   force =    -0.00000000    0.00000001    0.00000000
     atom    6 type  3   force =    -0.00000000    0.00000001   -0.00000000
     atom    7 type  2   force =     1.78959007    1.03322049   -0.00000000
     atom    8 type  2   force =     1.81294483    1.04670395   -0.00000000
     The core correction contribution to forces
     atom    1 type  1   force =    -0.00000000    0.00000000   -0.00000000
     atom    2 type  1   force =    -0.00000000    0.00000000    0.00000000
     atom    3 type  2   force =     0.00721542    0.00416560   -0.00000003
     atom    4 type  2   force =     0.00974257    0.00562498   -0.00000040
     atom    5 type  3   force =    -0.00000000    0.00000000    0.00000000
     atom    6 type  3   force =    -0.00000000    0.00000000   -0.00000000
     atom    7 type  2   force =    -0.00974257   -0.00562498    0.00000040
     atom    8 type  2   force =    -0.00721542   -0.00416560    0.00000003
     The Hubbard contrib.    to forces
     atom    1 type  1   force =     0.00000000    0.00000000    0.00000000
     atom    2 type  1   force =     0.00000000    0.00000000    0.00000000
     atom    3 type  2   force =     0.00000000    0.00000000    0.00000000
     atom    4 type  2   force =     0.00000000    0.00000000    0.00000000
     atom    5 type  3   force =     0.00000000    0.00000000    0.00000000
     atom    6 type  3   force =     0.00000000    0.00000000    0.00000000
     atom    7 type  2   force =     0.00000000    0.00000000    0.00000000
     atom    8 type  2   force =     0.00000000    0.00000000    0.00000000
     The SCF correction term to forces
     atom    1 type  1   force =     0.00000000    0.00000000   -0.00000000
     atom    2 type  1   force =     0.00000000    0.00000000    0.00000000
     atom    3 type  2   force =    -0.00000643   -0.00000371   -0.00000000
     atom    4 type  2   force =    -0.00001370   -0.00000790    0.00000000
     atom    5 type  3   force =    -0.00000000   -0.00000000   -0.00000000
     atom    6 type  3   force =    -0.00000000   -0.00000000    0.00000000
     atom    7 type  2   force =     0.00001370    0.00000790   -0.00000000
     atom    8 type  2   force =     0.00000643    0.00000371    0.00000000

     Total force =     0.050881     Total SCF correction =     0.000025

     BFGS Geometry Optimization
     Energy error            =      0.0E+00 Ry
     Gradient error          =      2.8E-02 Ry/Bohr

     number of scf cycles    =   1
     number of bfgs steps    =   0

     energy             new  =   -1186.3552859628 Ry

     new trust radius        =       0.0321895112 bohr
     new conv_thr            =       0.0000010000 Ry

ATOMIC_POSITIONS (angstrom)
Ni            0.0000000000       -0.0000000000        0.0000000000
Ni           -0.0000000000        0.0000000000        2.5225330000
As            0.0073649980        2.1091581543        6.3063325000
As            0.0147518566        4.2183288667        8.8288655000
Mn            1.8229020250        3.1573589245        2.5225330000
Mn            1.8229020250        3.1573589245        5.0450660000
As            1.8081501684        5.2537479068        6.3063325000
As            1.8155370270        7.3629186193        8.8288655000

     Writing config-only to output data dir ./tutorial.save/
     NEW-OLD atomic charge density approx. for the potential

[...]

     Total force =     0.042901     Total SCF correction =     0.001101
     Energy error            =      2.4E-03 Ry
     Gradient error          =      2.5E-02 Ry/Bohr

[...]

     energy             old  =   -1186.3552859628 Ry
     energy             new  =   -1186.3576484229 Ry

     CASE: energy            _new < energy            _old

     WARNING: bfgs curvature condition failed, Theta= 0.972
     new trust radius        =       0.0354084623 bohr
     new conv_thr            =       0.0000002362 Ry

[...]

     WARNING: bfgs curvature condition failed, Theta= 0.829
     new trust radius        =       0.0106579901 bohr
     new conv_thr            =       0.0000000994 Ry

[...]

     Threshold (ethr) on eigenvalues was too large:
     Diagonalizing with lowered threshold

     Davidson diagonalization with overlap
     ethr =  5.82E-08,  avg # of iterations =  2.0

[...]

     Total force =     0.001590     Total SCF correction =     0.000139
     Energy error            =      1.9E-03 Ry
     Gradient error          =      8.0E-04 Ry/Bohr

     number of scf cycles    =  15
     number of bfgs steps    =  14

     energy             old  =   -1186.4007802864 Ry
     energy             new  =   -1186.4026688975 Ry

     CASE: energy            _new < energy            _old

     new trust radius        =       0.0042158009 bohr
     new conv_thr            =       0.0000000100 Ry

ATOMIC_POSITIONS (angstrom)
Ni           -0.0000000000       -0.0000000000        0.0000000000
Ni            0.0000000000        0.0000000000        2.5225330000
As           -0.1189117567        2.0362522359        6.3063325000
As            0.2348262417        4.3453888721        8.8288655000
Mn            1.8229020250        3.1573589245        2.5225330000
Mn            1.8229020250        3.1573589245        5.0450660000
As            1.5880757833        5.1266879014        6.3063325000
As            1.9418137817        7.4358245377        8.8288655000

     Writing config-only to output data dir ./tutorial.save/
     NEW-OLD atomic charge density approx. for the potential

     Check: negative core charge=   -0.000055

     Self-consistent Calculation

[...]

     total energy              =   -1186.40267589 Ry
     estimated scf accuracy    <       0.00000003 Ry

     iteration #  7     ecut=    40.42 Ry     beta= 0.70
     Davidson diagonalization with overlap
     ethr =  3.24E-11,  avg # of iterations =  4.0

     End of self-consistent calculation

          k = 0.0000 0.0000 0.0000 (  3355 PWs)   bands (ev):

   -90.3327 -90.3226 -65.5067 -65.4606 -50.5831 -50.5151 -50.3440 -50.2354
   -49.9967 -49.9643 -35.0435 -34.6857 -34.2267 -34.2076 -34.1762 -34.1614
    -1.2269   1.0505   1.7404   2.6385   6.2349   7.0136   8.2898   8.6491
     8.6749   8.8367   9.0791   9.5640  10.0966  10.2206  10.3598  10.6898
    10.8034  11.0318  11.3093  11.5671  11.8935  12.0815  12.1125  12.5426
    12.7421  12.8375  13.3921  13.4377  13.4773  13.9423  13.9900  15.6526
    15.8701  16.3751  16.4599  16.6064

     the Fermi energy is    13.3729 ev

!    total energy              =   -1186.40267590 Ry
     estimated scf accuracy    <          2.1E-09 Ry
     smearing contrib. (-TS)   =      -0.02201296 Ry
     internal energy E=F+TS    =   -1186.38066293 Ry

     The total energy is F=E-TS. E is the sum of the following terms:
     one-electron contribution =    -815.26484344 Ry
     hartree contribution      =     449.94037674 Ry
     xc contribution           =    -169.44024897 Ry
     ewald contribution        =    -651.61594726 Ry

     convergence has been achieved in   7 iterations

     Forces acting on atoms (cartesian axes, Ry/au):

     atom    1 type  1   force =    -0.00000000    0.00000000    0.00000000
     atom    2 type  1   force =    -0.00000000   -0.00000000    0.00000000
     atom    3 type  2   force =    -0.00003495   -0.00002018    0.00000000
     atom    4 type  2   force =    -0.00008708   -0.00005027    0.00000000
     atom    5 type  3   force =    -0.00000000    0.00000000    0.00000000
     atom    6 type  3   force =     0.00000000   -0.00000000    0.00000000
     atom    7 type  2   force =     0.00008708    0.00005027    0.00000000
     atom    8 type  2   force =     0.00003495    0.00002018    0.00000000
     The non-local contrib.  to forces
     atom    1 type  1   force =    -0.00000000    0.00000000    0.00000000
     atom    2 type  1   force =     0.00000000   -0.00000000    0.00000000
     atom    3 type  2   force =     0.03808220    0.02198677    0.00000000
     atom    4 type  2   force =    -0.06274081   -0.03622342    0.00000000
     atom    5 type  3   force =    -0.00000000   -0.00000000    0.00000000
     atom    6 type  3   force =    -0.00000000   -0.00000000    0.00000000
     atom    7 type  2   force =     0.06274081    0.03622342    0.00000000
     atom    8 type  2   force =    -0.03808220   -0.02198677    0.00000000
     The ionic contribution  to forces
     atom    1 type  1   force =    -0.00000000   -0.00000000    0.00000000
     atom    2 type  1   force =    -0.00000000   -0.00000000   -0.00000000
     atom    3 type  2   force =     2.35233021    1.35811823   -0.00000000
     atom    4 type  2   force =    -0.25321914   -0.14619591    0.00000000
     atom    5 type  3   force =     0.00000000    0.00000000    0.00000000
     atom    6 type  3   force =     0.00000000    0.00000000   -0.00000000
     atom    7 type  2   force =     0.25321914    0.14619591   -0.00000000
     atom    8 type  2   force =    -2.35233021   -1.35811823    0.00000000
     The local contribution  to forces
     atom    1 type  1   force =    -0.00000000    0.00000000    0.00000000
     atom    2 type  1   force =     0.00000000    0.00000000    0.00000000
     atom    3 type  2   force =    -2.37753345   -1.37266929    0.00000000
     atom    4 type  2   force =     0.28437614    0.16418436   -0.00000000
     atom    5 type  3   force =     0.00000000    0.00000001   -0.00000000
     atom    6 type  3   force =     0.00000000    0.00000001   -0.00000000
     atom    7 type  2   force =    -0.28437614   -0.16418436   -0.00000000
     atom    8 type  2   force =     2.37753345    1.37266929   -0.00000000
     The core correction contribution to forces
     atom    1 type  1   force =    -0.00000000    0.00000000   -0.00000000
     atom    2 type  1   force =    -0.00000000    0.00000000    0.00000000
     atom    3 type  2   force =    -0.01289507   -0.00744503   -0.00000032
     atom    4 type  2   force =     0.03151880    0.01819733   -0.00000026
     atom    5 type  3   force =     0.00000000    0.00000000    0.00000000
     atom    6 type  3   force =     0.00000000    0.00000000   -0.00000000
     atom    7 type  2   force =    -0.03151880   -0.01819733    0.00000026
     atom    8 type  2   force =     0.01289507    0.00744503    0.00000032
     The Hubbard contrib.    to forces
     atom    1 type  1   force =     0.00000000    0.00000000    0.00000000
     atom    2 type  1   force =     0.00000000    0.00000000    0.00000000
     atom    3 type  2   force =     0.00000000    0.00000000    0.00000000
     atom    4 type  2   force =     0.00000000    0.00000000    0.00000000
     atom    5 type  3   force =     0.00000000    0.00000000    0.00000000
     atom    6 type  3   force =     0.00000000    0.00000000    0.00000000
     atom    7 type  2   force =     0.00000000    0.00000000    0.00000000
     atom    8 type  2   force =     0.00000000    0.00000000    0.00000000
     The SCF correction term to forces
     atom    1 type  1   force =     0.00000000   -0.00000000   -0.00000000
     atom    2 type  1   force =     0.00000000   -0.00000000   -0.00000000
     atom    3 type  2   force =    -0.00001884   -0.00001088    0.00000000
     atom    4 type  2   force =    -0.00002202   -0.00001271   -0.00000000
     atom    5 type  3   force =     0.00000000    0.00000000    0.00000000
     atom    6 type  3   force =     0.00000000    0.00000000   -0.00000000
     atom    7 type  2   force =     0.00002202    0.00001271    0.00000000
     atom    8 type  2   force =     0.00001884    0.00001088   -0.00000000

     Total force =     0.000153     Total SCF correction =     0.000047
     SCF correction compared to forces is large: reduce conv_thr to get better values
     Energy error            =      7.0E-06 Ry
     Gradient error          =      8.7E-05 Ry/Bohr

     bfgs converged in  16 scf cycles and  15 bfgs steps
     (criteria: energy <  1.0E-04 Ry, force <  1.0E-03 Ry/Bohr)

     End of BFGS Geometry Optimization

     Final energy             =   -1186.4026758968 Ry

     File ./tutorial.bfgs deleted, as requested
Begin final coordinates

ATOMIC_POSITIONS (angstrom)
Ni           -0.0000000000       -0.0000000000        0.0000000000
Ni            0.0000000000        0.0000000000        2.5225330000
As           -0.1189117567        2.0362522359        6.3063325000
As            0.2348262417        4.3453888721        8.8288655000
Mn            1.8229020250        3.1573589245        2.5225330000
Mn            1.8229020250        3.1573589245        5.0450660000
As            1.5880757833        5.1266879014        6.3063325000
As            1.9418137817        7.4358245377        8.8288655000
End final coordinates

     Writing all to output data dir ./tutorial.save/

     General routines

     Parallel routines

   This run was terminated on:  15: 4:15  30May2023

   JOB DONE.