     Program PWSCF v.7.2 starts on 30May2023 at 15:10:51

     Waiting for input...
     Reading input from standard input
Warning: card &CELL ignored
Warning: card / ignored

     Current dimensions of program PWSCF are:
     Max number of different atomic species (ntypx) = 10
     Max number of k-points (npk) =  40000
     Max angular momentum in pseudopotentials (lmaxx) =  4
     file Mn.pbesol-spn-rrkjus_psl.0.3.1.UPF: wavefunction(s)  3D renormalized
     Found identity + (  0.0000 -0.5000  0.0000) symmetry
     This is a supercell, fractional translations are disabled
     Message from routine setup:
     using ibrav=0 with symmetry is DISCOURAGED, use correct ibrav instead

     R & G space division:  proc/nbgrp/npool/nimage =      28
     Subspace diagonalization in iterative solution of the eigenvalue problem:
     a serial algorithm will be used

     Using Slab Decomposition

     bravais-lattice index     =            0
     lattice parameter (alat)  =       6.8896  a.u.
     unit-cell volume          =     783.8099 (a.u.)^3
     number of atoms/cell      =            8
     number of atomic types    =            3
     number of electrons       =        86.00
     number of Kohn-Sham states=           52
     kinetic-energy cutoff     =      40.4242  Ry
     charge density cutoff     =     161.6969  Ry
     scf convergence threshold =      1.0E-06
     mixing beta               =       0.7000
     number of iterations used =            8  plain     mixing
     energy convergence thresh.=      1.0E-04
     force convergence thresh. =      1.0E-03
     Exchange-correlation= PBESOL
                           (   1   4  10   8   0   0   0)
     nstep                     =           50

     celldm(1)=   6.889571  celldm(2)=   0.000000  celldm(3)=   0.000000
     celldm(4)=   0.000000  celldm(5)=   0.000000  celldm(6)=   0.000000

     crystal axes: (cart. coord. in units of alat)
               a(1) = (   0.500000   0.866025   0.000000 )
               a(2) = (  -1.000000   1.732051   0.000000 )
               a(3) = (   0.000000   0.000000   1.383801 )

     reciprocal axes: (cart. coord. in units 2 pi/alat)
               b(1) = (  1.000000  0.577350  0.000000 )
               b(2) = ( -0.500000  0.288675  0.000000 )
               b(3) = (  0.000000  0.000000  0.722647 )

     PseudoPot. # 1 for Mn read from file:
     /home/valmzztt/Intermetallic_alloys/pseudos/Mn.pbesol-spn-rrkjus_psl.0.3.1.UPF
     MD5 check sum: 61e28eea34dae291f95a967fe31318f1
     Pseudo is Ultrasoft + core correction, Zval = 15.0
     Generated using &quot;atomic&quot; code by A. Dal Corso  v.6.3
     Using radial grid of 1187 points,  6 beta functions with:
                l(1) =   0
                l(2) =   0
                l(3) =   1
                l(4) =   1
                l(5) =   2
                l(6) =   2
     Q(r) pseudized with 0 coefficients

     PseudoPot. # 2 for Ni read from file:
     /home/valmzztt/Intermetallic_alloys/pseudos/Ni.pbesol-spn-rrkjus_psl.1.0.0.UPF
     MD5 check sum: 6fc0a587bf949a08f2faed986b854013
     Pseudo is Ultrasoft + core correction, Zval = 18.0
     Generated using &quot;atomic&quot; code by A. Dal Corso  v.6.3
     Using radial grid of 1195 points,  6 beta functions with:
                l(1) =   0
                l(2) =   0
                l(3) =   1
                l(4) =   1
                l(5) =   2
                l(6) =   2
     Q(r) pseudized with 0 coefficients

     PseudoPot. # 3 for As read from file:
     /home/valmzztt/Intermetallic_alloys/pseudos/As.pbesol-n-rrkjus_psl.1.0.0.UPF
     MD5 check sum: 2fb13bbab3d0b4e108be5408f3d6fe7c
     Pseudo is Ultrasoft + core correction, Zval =  5.0
     Generated using &quot;atomic&quot; code by A. Dal Corso  v.6.3
     Using radial grid of 1209 points,  4 beta functions with:
                l(1) =   0
                l(2) =   0
                l(3) =   1
                l(4) =   1
     Q(r) pseudized with 0 coefficients

     atomic species   valence    mass     pseudopotential
        Mn            15.00    54.93804     Mn( 1.00)
        Ni            18.00    58.69340     Ni( 1.00)
        As             5.00    74.92159     As( 1.00)

      4 Sym. Ops., with inversion, found

   Cartesian axes

     site n.     atom                  positions (alat units)
         1           Mn  tau(   1) = (  -0.5000000   0.8660254   0.0000000  )
         2           Ni  tau(   2) = (  -0.5000000   0.8660254   0.6919003  )
         3           As  tau(   3) = (  -0.5000000   1.4433757   0.3459502  )
         4           As  tau(   4) = (  -0.5000000   2.0207259   1.0378505  )
         5           Mn  tau(   5) = (   0.0000000   0.0000000   0.0000000  )
         6           Ni  tau(   6) = (   0.0000000   0.0000000   0.6919003  )
         7           As  tau(   7) = (  -0.0000000   0.5773503   0.3459502  )
         8           As  tau(   8) = (   0.0000000   1.1547005   1.0378505  )

     number of k points=     1  Gaussian smearing, width (Ry)=  0.0147
                       cart. coord. in units 2pi/alat
        k(    1) = (   0.0000000   0.0000000   0.0000000), wk =   2.0000000

     Check: negative core charge=   -0.000057

     Initial potential from superposition of free atoms

     starting charge      85.9977, renormalised to      86.0000
     Starting wfcs are   56 randomized atomic wfcs

     Self-consistent Calculation

     iteration #  1     ecut=    40.42 Ry     beta= 0.70
     Davidson diagonalization with overlap
     ethr =  1.00E-02,  avg # of iterations =  2.0

     total energy              =   -1183.67358653 Ry
     estimated scf accuracy    <       3.65222578 Ry

[...]

     End of self-consistent calculation

          k = 0.0000 0.0000 0.0000 (  3355 PWs)   bands (ev):

   -90.4929 -90.4920 -64.9914 -64.9907 -50.6478 -50.6183 -50.5100 -50.4786
   -50.2246 -50.1485 -34.1766 -34.1750 -33.8624 -33.8538 -33.7618 -33.7588
    -1.1781   1.2039   1.7924   2.5366   6.3449   6.3996   8.8883   8.8906
     9.1428   9.1757   9.1813   9.4309   9.9103   9.9470  10.1865  10.5340
    10.6441  11.0423  11.2669  11.6991  11.7055  12.2264  12.5298  13.1507
    13.1532  13.3661  13.3880  13.4203  13.4258  13.7948  14.4283  15.6364
    15.6592  16.4705  16.7716  16.8021

     the Fermi energy is    13.4063 ev

!    total energy              =   -1186.30426988 Ry
     estimated scf accuracy    <       0.00000052 Ry
     smearing contrib. (-TS)   =      -0.03613832 Ry
     internal energy E=F+TS    =   -1186.26813156 Ry

     The total energy is F=E-TS. E is the sum of the following terms:
     one-electron contribution =    -811.91354035 Ry
     hartree contribution      =     448.60330626 Ry
     xc contribution           =    -169.39465720 Ry
     ewald contribution        =    -653.56324027 Ry

     convergence has been achieved in  18 iterations

     Forces acting on atoms (cartesian axes, Ry/au):

     atom    1 type  1   force =     0.00000000    0.00000000    0.00000000
     atom    2 type  2   force =     0.00000000    0.00000000    0.00000000
     atom    3 type  3   force =     0.02242367   -0.01294631   -0.07268273
     atom    4 type  3   force =    -0.02253529    0.01301076    0.07269133
     atom    5 type  1   force =     0.00000000    0.00000000    0.00000000
     atom    6 type  2   force =     0.00000000    0.00000000    0.00000000
     atom    7 type  3   force =     0.02253529   -0.01301076   -0.07269133
     atom    8 type  3   force =    -0.02242367    0.01294631    0.07268273
     The non-local contrib.  to forces
     atom    1 type  1   force =     0.00000000    0.00000000    0.00000000
     atom    2 type  2   force =     0.00000000    0.00000000    0.00000000
     atom    3 type  3   force =    -0.01756657    0.01014206    0.04173161
     atom    4 type  3   force =     0.01743945   -0.01006867   -0.04173533
     atom    5 type  1   force =     0.00000000    0.00000000    0.00000000
     atom    6 type  2   force =     0.00000000    0.00000000    0.00000000
     atom    7 type  3   force =    -0.01743945    0.01006867    0.04173533
     atom    8 type  3   force =     0.01756657   -0.01014206   -0.04173161
     The ionic contribution  to forces
     atom    1 type  1   force =    -0.00000000    0.00000000   -0.00000000
     atom    2 type  2   force =    -0.00000000    0.00000000    0.00000000
     atom    3 type  3   force =     0.00000016   -0.00000009   -1.42680443
     atom    4 type  3   force =    -0.00000016    0.00000009    1.42680443
     atom    5 type  1   force =     0.00000000   -0.00000000    0.00000000
     atom    6 type  2   force =     0.00000000   -0.00000000   -0.00000000
     atom    7 type  3   force =     0.00000016   -0.00000009   -1.42680443
     atom    8 type  3   force =    -0.00000016    0.00000009    1.42680443
     The local contribution  to forces
     atom    1 type  1   force =    -0.00000000    0.00000001   -0.00000000
     atom    2 type  2   force =     0.00000000    0.00000002    0.00000000
     atom    3 type  3   force =     0.03582828   -0.02068547    1.32619512
     atom    4 type  3   force =    -0.03669675    0.02118688   -1.32612981
     atom    5 type  1   force =    -0.00000000    0.00000000   -0.00000000
     atom    6 type  2   force =    -0.00000000    0.00000000   -0.00000000
     atom    7 type  3   force =     0.03669675   -0.02118688    1.32612981
     atom    8 type  3   force =    -0.03582828    0.02068547   -1.32619512
     The core correction contribution to forces
     atom    1 type  1   force =    -0.00000000    0.00000000   -0.00000000
     atom    2 type  2   force =     0.00000000    0.00000000   -0.00000000
     atom    3 type  3   force =     0.00372377   -0.00215106   -0.01387849
     atom    4 type  3   force =    -0.00372097    0.00214944    0.01388056
     atom    5 type  1   force =    -0.00000000    0.00000000    0.00000000
     atom    6 type  2   force =     0.00000000    0.00000000   -0.00000000
     atom    7 type  3   force =     0.00372097   -0.00214944   -0.01388056
     atom    8 type  3   force =    -0.00372377    0.00215106    0.01387849
     The Hubbard contrib.    to forces
     atom    1 type  1   force =     0.00000000    0.00000000    0.00000000
     atom    2 type  2   force =     0.00000000    0.00000000    0.00000000
     atom    3 type  3   force =     0.00000000    0.00000000    0.00000000
     atom    4 type  3   force =     0.00000000    0.00000000    0.00000000
     atom    5 type  1   force =     0.00000000    0.00000000    0.00000000
     atom    6 type  2   force =     0.00000000    0.00000000    0.00000000
     atom    7 type  3   force =     0.00000000    0.00000000    0.00000000
     atom    8 type  3   force =     0.00000000    0.00000000    0.00000000
     The SCF correction term to forces
     atom    1 type  1   force =    -0.00000000    0.00000000    0.00000000
     atom    2 type  2   force =    -0.00000000    0.00000000    0.00000000
     atom    3 type  3   force =     0.00043754   -0.00025261    0.00007346
     atom    4 type  3   force =     0.00044363   -0.00025613   -0.00012852
     atom    5 type  1   force =     0.00000000   -0.00000000    0.00000000
     atom    6 type  2   force =     0.00000000   -0.00000000   -0.00000000
     atom    7 type  3   force =    -0.00044363    0.00025613    0.00012852
     atom    8 type  3   force =    -0.00043754    0.00025261   -0.00007346

     Total force =     0.154366     Total SCF correction =     0.001039

     BFGS Geometry Optimization
     Energy error            =      0.0E+00 Ry
     Gradient error          =      7.3E-02 Ry/Bohr

     number of scf cycles    =   1
     number of bfgs steps    =   0

     energy             new  =   -1186.3042698782 Ry

     new trust radius        =       0.0772084783 bohr
     new conv_thr            =       0.0000010000 Ry

ATOMIC_POSITIONS (angstrom)
Mn           -1.8229020250        3.1573589245        0.0000000000
Ni           -1.8229020250        3.1573589245        2.5225330000
As           -1.8110359463        5.2554139904        1.2228044545
As           -1.8348271707        7.3740558100        3.8222660967
Mn            0.0000000000        0.0000000000        0.0000000000
Ni            0.0000000000        0.0000000000        2.5225330000
As            0.0119251457        2.0980209636        1.2227999033
As           -0.0118660787        4.2166627831        3.8222615455

     Writing config-only to output data dir ./tutorial.save/
     NEW-OLD atomic charge density approx. for the potential

[...]

     Total force =     0.128029     Total SCF correction =     0.000581
     Energy error            =      2.2E-02 Ry
     Gradient error          =      5.4E-02 Ry/Bohr

[...]

     energy             old  =   -1186.3042698782 Ry
     energy             new  =   -1186.3258521585 Ry

     CASE: energy            _new < energy            _old

     WARNING: bfgs curvature condition failed, Theta= 0.990
     new trust radius        =       0.0849293262 bohr
     new conv_thr            =       0.0000005396 Ry

[...]

     number of scf cycles    =  11
     number of bfgs steps    =  10

     energy             old  =   -1186.3945182459 Ry
     energy             new  =   -1186.3948687029 Ry

     CASE: energy            _new < energy            _old

     new trust radius        =       0.0049549059 bohr
     new conv_thr            =       0.0000000168 Ry

ATOMIC_POSITIONS (angstrom)
Mn           -1.8229020250        3.1573589245        0.0000000000
Ni           -1.8229020250        3.1573589245        2.5225330000
As           -1.6292138021        5.1504389266        1.1795025834
As           -2.0166591514        7.4790365530        3.8655270918
Mn            0.0000000000        0.0000000000        0.0000000000
Ni            0.0000000000        0.0000000000        2.5225330000
As            0.1937571264        1.9930402206        1.1795389082
As           -0.1936882229        4.3216378469        3.8655634166

     Writing config-only to output data dir ./tutorial.save/
     NEW-OLD atomic charge density approx. for the potential

     Check: negative core charge=   -0.000056

     Self-consistent Calculation

[...]

     Threshold (ethr) on eigenvalues was too large:
     Diagonalizing with lowered threshold

     Davidson diagonalization with overlap
     ethr =  1.31E-08,  avg # of iterations =  2.0

[...]

     total energy              =   -1186.39489896 Ry
     estimated scf accuracy    <       0.00000004 Ry

     iteration #  9     ecut=    40.42 Ry     beta= 0.70
     Davidson diagonalization with overlap
     ethr =  5.16E-11,  avg # of iterations =  1.0

     End of self-consistent calculation

          k = 0.0000 0.0000 0.0000 (  3355 PWs)   bands (ev):

   -90.3440 -90.3437 -65.4135 -65.4129 -50.5175 -50.5087 -50.4874 -50.4775
   -49.8970 -49.8212 -34.5535 -34.5520 -34.3272 -34.3159 -34.2004 -34.1974
    -1.2556   0.9635   1.8496   2.6085   6.1734   7.1582   8.1740   8.6127
     8.7224   8.7407   9.0830   9.6247   9.7844  10.2333  10.4798  10.7560
    10.7953  11.3446  11.4529  11.5281  11.7230  12.0795  12.2416  12.6855
    12.7139  12.9039  13.0377  13.1122  13.6779  14.0151  14.2454  15.2865
    15.7248  16.3471  16.7759  17.5728

     the Fermi energy is    13.0927 ev

!    total energy              =   -1186.39489896 Ry
     estimated scf accuracy    <          2.8E-09 Ry
     smearing contrib. (-TS)   =      -0.01966758 Ry
     internal energy E=F+TS    =   -1186.37523139 Ry

     The total energy is F=E-TS. E is the sum of the following terms:
     one-electron contribution =    -812.90087029 Ry
     hartree contribution      =     448.81871290 Ry
     xc contribution           =    -169.48841599 Ry
     ewald contribution        =    -652.80465800 Ry

     convergence has been achieved in   9 iterations

     Forces acting on atoms (cartesian axes, Ry/au):

     atom    1 type  1   force =     0.00000000    0.00000000    0.00000000
     atom    2 type  2   force =     0.00000000    0.00000000    0.00000000
     atom    3 type  3   force =     0.00047430   -0.00027384   -0.00045365
     atom    4 type  3   force =    -0.00044773    0.00025850    0.00044970
     atom    5 type  1   force =     0.00000000    0.00000000    0.00000000
     atom    6 type  2   force =     0.00000000    0.00000000    0.00000000
     atom    7 type  3   force =     0.00044773   -0.00025850   -0.00044970
     atom    8 type  3   force =    -0.00047430    0.00027384    0.00045365
     The non-local contrib.  to forces
     atom    1 type  1   force =     0.00000000    0.00000000    0.00000000
     atom    2 type  2   force =     0.00000000    0.00000000    0.00000000
     atom    3 type  3   force =    -0.05949407    0.03434892    0.03888209
     atom    4 type  3   force =     0.05949505   -0.03434948   -0.03887376
     atom    5 type  1   force =     0.00000000    0.00000000    0.00000000
     atom    6 type  2   force =     0.00000000    0.00000000    0.00000000
     atom    7 type  3   force =    -0.05949505    0.03434948    0.03887376
     atom    8 type  3   force =     0.05949407   -0.03434892   -0.03888209
     The ionic contribution  to forces
     atom    1 type  1   force =    -0.00000000    0.00000000   -0.00000000
     atom    2 type  2   force =    -0.00000000    0.00000000    0.00000000
     atom    3 type  3   force =    -1.33746718    0.77218704   -0.69017932
     atom    4 type  3   force =     1.33803626   -0.77251559    0.69036584
     atom    5 type  1   force =     0.00000000   -0.00000000    0.00000000
     atom    6 type  2   force =     0.00000000   -0.00000000   -0.00000000
     atom    7 type  3   force =    -1.33803626    0.77251559   -0.69036584
     atom    8 type  3   force =     1.33746718   -0.77218704    0.69017932
     The local contribution  to forces
     atom    1 type  1   force =    -0.00000000    0.00000001   -0.00000000
     atom    2 type  2   force =     0.00000000    0.00000002    0.00000000
     atom    3 type  3   force =     1.37199525   -0.79212183    0.66980383
     atom    4 type  3   force =    -1.37253713    0.79243468   -0.67001374
     atom    5 type  1   force =    -0.00000000    0.00000000    0.00000000
     atom    6 type  2   force =     0.00000000   -0.00000000   -0.00000000
     atom    7 type  3   force =     1.37253713   -0.79243468    0.67001374
     atom    8 type  3   force =    -1.37199525    0.79212183   -0.66980383
     The core correction contribution to forces
     atom    1 type  1   force =    -0.00000000    0.00000000   -0.00000000
     atom    2 type  2   force =     0.00000000    0.00000000   -0.00000000
     atom    3 type  3   force =     0.02543913   -0.01468757   -0.01895328
     atom    4 type  3   force =    -0.02544158    0.01468898    0.01894917
     atom    5 type  1   force =    -0.00000000    0.00000000    0.00000000
     atom    6 type  2   force =     0.00000000    0.00000000   -0.00000000
     atom    7 type  3   force =     0.02544158   -0.01468898   -0.01894917
     atom    8 type  3   force =    -0.02543913    0.01468757    0.01895328
     The Hubbard contrib.    to forces
     atom    1 type  1   force =     0.00000000    0.00000000    0.00000000
     atom    2 type  2   force =     0.00000000    0.00000000    0.00000000
     atom    3 type  3   force =     0.00000000    0.00000000    0.00000000
     atom    4 type  3   force =     0.00000000    0.00000000    0.00000000
     atom    5 type  1   force =     0.00000000    0.00000000    0.00000000
     atom    6 type  2   force =     0.00000000    0.00000000    0.00000000
     atom    7 type  3   force =     0.00000000    0.00000000    0.00000000
     atom    8 type  3   force =     0.00000000    0.00000000    0.00000000
     The SCF correction term to forces
     atom    1 type  1   force =     0.00000000    0.00000000   -0.00000000
     atom    2 type  2   force =     0.00000000   -0.00000000    0.00000000
     atom    3 type  3   force =     0.00000104   -0.00000060   -0.00000698
     atom    4 type  3   force =    -0.00000020    0.00000012    0.00002219
     atom    5 type  1   force =    -0.00000000   -0.00000000    0.00000000
     atom    6 type  2   force =    -0.00000000   -0.00000000   -0.00000000
     atom    7 type  3   force =     0.00000020   -0.00000012   -0.00002219
     atom    8 type  3   force =    -0.00000104    0.00000060    0.00000698

     Total force =     0.001397     Total SCF correction =     0.000033
     Energy error            =      3.0E-05 Ry
     Gradient error          =      4.7E-04 Ry/Bohr

     bfgs converged in  12 scf cycles and  11 bfgs steps
     (criteria: energy <  1.0E-04 Ry, force <  1.0E-03 Ry/Bohr)

     End of BFGS Geometry Optimization

     Final energy             =   -1186.3948989649 Ry

     File ./tutorial.bfgs deleted, as requested
Begin final coordinates

ATOMIC_POSITIONS (angstrom)
Mn           -1.8229020250        3.1573589245        0.0000000000
Ni           -1.8229020250        3.1573589245        2.5225330000
As           -1.6292138021        5.1504389266        1.1795025834
As           -2.0166591514        7.4790365530        3.8655270918
Mn            0.0000000000        0.0000000000        0.0000000000
Ni            0.0000000000        0.0000000000        2.5225330000
As            0.1937571264        1.9930402206        1.1795389082
As           -0.1936882229        4.3216378469        3.8655634166
End final coordinates

     Writing all to output data dir ./tutorial.save/

     General routines

     Parallel routines

   This run was terminated on:  15:11: 0  30May2023

   JOB DONE.