     Program PWSCF v.7.2 starts on 30May2023 at 15:14:40

     Waiting for input...
     Reading input from standard input
Warning: card &CELL ignored
Warning: card / ignored

     Current dimensions of program PWSCF are:
     Max number of different atomic species (ntypx) = 10
     Max number of k-points (npk) =  40000
     Max angular momentum in pseudopotentials (lmaxx) =  4
     file Mn.pbesol-spn-rrkjus_psl.0.3.1.UPF: wavefunction(s)  3D renormalized
     Message from routine setup:
     using ibrav=0 with symmetry is DISCOURAGED, use correct ibrav instead

     R & G space division:  proc/nbgrp/npool/nimage =      28
     Subspace diagonalization in iterative solution of the eigenvalue problem:
     a serial algorithm will be used

     Using Slab Decomposition

     bravais-lattice index     =            0
     lattice parameter (alat)  =      11.7626  a.u.
     unit-cell volume          =    1175.7148 (a.u.)^3
     number of atoms/cell      =           12
     number of atomic types    =            3
     number of electrons       =       126.00
     number of Kohn-Sham states=           76
     kinetic-energy cutoff     =      40.4242  Ry
     charge density cutoff     =     161.6969  Ry
     scf convergence threshold =      1.0E-06
     mixing beta               =       0.7000
     number of iterations used =            8  plain     mixing
     energy convergence thresh.=      1.0E-04
     force convergence thresh. =      1.0E-03
     Exchange-correlation= PBESOL
                           (   1   4  10   8   0   0   0)
     nstep                     =           50

     celldm(1)=  11.762627  celldm(2)=   0.000000  celldm(3)=   0.000000
     celldm(4)=   0.000000  celldm(5)=   0.000000  celldm(6)=   0.000000

     crystal axes: (cart. coord. in units of alat)
               a(1) = (   0.585717   0.000000   0.810516 )
               a(2) = (  -0.878576   1.521737   0.000000 )
               a(3) = (   0.000000   0.000000   0.810516 )

     reciprocal axes: (cart. coord. in units 2 pi/alat)
               b(1) = (  1.707309  0.985715  0.000000 )
               b(2) = (  0.000000  0.657144  0.000000 )
               b(3) = ( -1.707309 -0.985715  1.233783 )

     PseudoPot. # 1 for Mn read from file:
     /home/valmzztt/Intermetallic_alloys/pseudos/Mn.pbesol-spn-rrkjus_psl.0.3.1.UPF
     MD5 check sum: 61e28eea34dae291f95a967fe31318f1
     Pseudo is Ultrasoft + core correction, Zval = 15.0
     Generated using &quot;atomic&quot; code by A. Dal Corso  v.6.3
     Using radial grid of 1187 points,  6 beta functions with:
                l(1) =   0
                l(2) =   0
                l(3) =   1
                l(4) =   1
                l(5) =   2
                l(6) =   2
     Q(r) pseudized with 0 coefficients

     PseudoPot. # 2 for Ni read from file:
     /home/valmzztt/Intermetallic_alloys/pseudos/Ni.pbesol-spn-rrkjus_psl.1.0.0.UPF
     MD5 check sum: 6fc0a587bf949a08f2faed986b854013
     Pseudo is Ultrasoft + core correction, Zval = 18.0
     Generated using &quot;atomic&quot; code by A. Dal Corso  v.6.3
     Using radial grid of 1195 points,  6 beta functions with:
                l(1) =   0
                l(2) =   0
                l(3) =   1
                l(4) =   1
                l(5) =   2
                l(6) =   2
     Q(r) pseudized with 0 coefficients

     PseudoPot. # 3 for As read from file:
     /home/valmzztt/Intermetallic_alloys/pseudos/As.pbesol-n-rrkjus_psl.1.0.0.UPF
     MD5 check sum: 2fb13bbab3d0b4e108be5408f3d6fe7c
     Pseudo is Ultrasoft + core correction, Zval =  5.0
     Generated using &quot;atomic&quot; code by A. Dal Corso  v.6.3
     Using radial grid of 1209 points,  4 beta functions with:
                l(1) =   0
                l(2) =   0
                l(3) =   1
                l(4) =   1
     Q(r) pseudized with 0 coefficients

     atomic species   valence    mass     pseudopotential
        Mn            15.00    54.93804     Mn( 1.00)
        Ni            18.00    58.69340     Ni( 1.00)
        As             5.00    74.92159     As( 1.00)

      4 Sym. Ops. (no inversion) found ( 2 have fractional translation)

   Cartesian axes

     site n.     atom                  positions (alat units)
         1           Mn  tau(   1) = (  -0.5857170   1.0144917   0.0000000  )
         2           Ni  tau(   2) = (  -0.5857170   1.0144917   0.4052578  )
         3           As  tau(   3) = (  -0.5857170   1.3526556   1.0131445  )
         4           Mn  tau(   4) = (  -0.2928585   0.5072458   0.0000000  )
         5           Mn  tau(   5) = (  -0.2928585   0.5072458   0.4052578  )
         6           As  tau(   6) = (  -0.2928585   0.8454097   1.0131445  )
         7           As  tau(   7) = (  -0.2928585   1.1835736   0.6078867  )
         8           Ni  tau(   8) = (   0.0000000   0.0000000   0.0000000  )
         9           Mn  tau(   9) = (   0.0000000   0.0000000   0.4052578  )
        10           As  tau(  10) = (  -0.0000000   0.3381639   1.0131445  )
        11           As  tau(  11) = (   0.0000000   0.6763278   0.6078867  )
        12           As  tau(  12) = (   0.2928585   0.1690819   0.6078867  )

     number of k points=     1  Gaussian smearing, width (Ry)=  0.0147
                       cart. coord. in units 2pi/alat
        k(    1) = (   0.0000000   0.0000000   0.0000000), wk =   2.0000000

     Check: negative core charge=   -0.000073

     Initial potential from superposition of free atoms

     starting charge     125.9964, renormalised to     126.0000
     Starting wfcs are   84 randomized atomic wfcs

     Self-consistent Calculation

     iteration #  1     ecut=    40.42 Ry     beta= 0.70
     Davidson diagonalization with overlap
     ethr =  1.00E-02,  avg # of iterations =  2.0

     total energy              =   -1651.86618403 Ry
     estimated scf accuracy    <       3.55730384 Ry

[...]

     End of self-consistent calculation

          k = 0.0000 0.0000 0.0000 (  5061 PWs)   bands (ev):

   -90.4256 -90.4247 -65.4180 -65.3723 -64.9831 -64.9831 -50.5246 -50.4796
   -50.4496 -50.4212 -50.2360 -50.2239 -34.9705 -34.6195 -34.4042 -34.4040
   -34.1296 -34.0871 -34.0838 -34.0301 -33.7912 -33.7908 -33.5489 -33.5486
    -1.0603   0.2926   0.2971   2.4094   2.4370   2.6429   6.4183   7.4562
     7.4791   8.0532   8.0703   8.9552   9.0389   9.1887   9.2231   9.2275
     9.3185  10.0190  10.0714  10.2820  10.3113  10.3465  10.4812  10.5240
    10.8589  11.0080  11.3391  11.4321  11.9416  11.9845  12.3298  12.6040
    12.8879  12.9247  13.0165  13.0425  13.3588  13.3956  13.5075  13.5447
    13.5641  13.5798  13.6171  13.9875  14.2807  14.4137  14.8684  15.6997
    15.7220  16.4235  16.5891  17.1800

     the Fermi energy is    13.4827 ev

!    total energy              =   -1654.33797364 Ry
     estimated scf accuracy    <       0.00000008 Ry
     smearing contrib. (-TS)   =      -0.04719351 Ry
     internal energy E=F+TS    =   -1654.29078014 Ry

     The total energy is F=E-TS. E is the sum of the following terms:
     one-electron contribution =   -1079.31001559 Ry
     hartree contribution      =     601.62710778 Ry
     xc contribution           =    -247.73846077 Ry
     ewald contribution        =    -928.86941155 Ry

     convergence has been achieved in  20 iterations

     Forces acting on atoms (cartesian axes, Ry/au):

     atom    1 type  1   force =     0.00000000   -0.01267937    0.00823180
     atom    2 type  2   force =     0.00000000    0.00662980    0.00770874
     atom    3 type  3   force =     0.00000000    0.01328721    0.03191881
     atom    4 type  1   force =     0.00000000    0.00279839   -0.02167996
     atom    5 type  1   force =     0.00000000   -0.00279839   -0.02167996
     atom    6 type  3   force =     0.00000000    0.01917520   -0.03295538
     atom    7 type  3   force =     0.00000000   -0.01328721    0.03191881
     atom    8 type  2   force =     0.00000000   -0.00662980    0.00770874
     atom    9 type  1   force =     0.00000000    0.01267937    0.00823180
     atom   10 type  3   force =     0.00000000    0.01436766    0.00677599
     atom   11 type  3   force =     0.00000000   -0.01436766    0.00677599
     atom   12 type  3   force =     0.00000000   -0.01917520   -0.03295538
     The non-local contrib.  to forces
     atom    1 type  1   force =     0.00000000   -0.00847140   -0.00110239
     atom    2 type  2   force =     0.00000000    0.02967804   -0.00727263
     atom    3 type  3   force =     0.00000000    0.00411535   -0.01447462
     atom    4 type  1   force =     0.00000000    0.04758451   -0.00551427
     atom    5 type  1   force =     0.00000000   -0.04758451   -0.00551427
     atom    6 type  3   force =     0.00000000    0.00349064    0.02633533
     atom    7 type  3   force =     0.00000000   -0.00411535   -0.01447462
     atom    8 type  2   force =     0.00000000   -0.02967804   -0.00727263
     atom    9 type  1   force =     0.00000000    0.00847140   -0.00110239
     atom   10 type  3   force =     0.00000000   -0.03472404   -0.02815001
     atom   11 type  3   force =     0.00000000    0.03472404   -0.02815001
     atom   12 type  3   force =     0.00000000   -0.00349064    0.02633533
     The ionic contribution  to forces
     atom    1 type  1   force =    -0.00000000   -3.08875261   -0.00000000
     atom    2 type  2   force =    -0.00000000   -3.01198928    0.00000000
     atom    3 type  3   force =     0.00000016    0.32339571    0.40359995
     atom    4 type  1   force =     0.00000000    0.57876154   -0.00000000
     atom    5 type  1   force =    -0.00000000   -0.57876154    0.00000000
     atom    6 type  3   force =     0.00000016   -1.69997936   -0.85627144
     atom    7 type  3   force =    -0.00000016   -0.32339572    0.40359995
     atom    8 type  2   force =     0.00000000    3.01198928    0.00000000
     atom    9 type  1   force =     0.00000000    3.08875261   -0.00000000
     atom   10 type  3   force =     0.00000014    1.37658338    0.45267150
     atom   11 type  3   force =    -0.00000014   -1.37658338    0.45267150
     atom   12 type  3   force =    -0.00000016    1.69997936   -0.85627144
     The local contribution  to forces
     atom    1 type  1   force =    -0.00000000    3.08709009    0.00894845
     atom    2 type  2   force =    -0.00000000    2.98769354    0.01500148
     atom    3 type  3   force =    -0.00000018   -0.31263130   -0.36113691
     atom    4 type  1   force =    -0.00000000   -0.62781117   -0.01688673
     atom    5 type  1   force =    -0.00000000    0.62781117   -0.01688673
     atom    6 type  3   force =    -0.00000019    1.71911407    0.80492373
     atom    7 type  3   force =     0.00000018    0.31263130   -0.36113691
     atom    8 type  2   force =     0.00000000   -2.98769354    0.01500148
     atom    9 type  1   force =     0.00000000   -3.08709009    0.00894845
     atom   10 type  3   force =    -0.00000016   -1.33511351   -0.42503440
     atom   11 type  3   force =     0.00000016    1.33511351   -0.42503440
     atom   12 type  3   force =     0.00000019   -1.71911407    0.80492373
     The core correction contribution to forces
     atom    1 type  1   force =    -0.00000525   -0.00324690    0.00041085
     atom    2 type  2   force =    -0.00000006    0.00046401    0.00012886
     atom    3 type  3   force =    -0.00000014   -0.00151550    0.00389645
     atom    4 type  1   force =     0.00000432    0.00429142    0.00070150
     atom    5 type  1   force =    -0.00000387   -0.00428224    0.00069246
     atom    6 type  3   force =    -0.00000063   -0.00370390   -0.00797263
     atom    7 type  3   force =    -0.00000002    0.00151574    0.00389821
     atom    8 type  2   force =     0.00000012   -0.00046303    0.00013115
     atom    9 type  1   force =     0.00000483    0.00324295    0.00042055
     atom   10 type  3   force =     0.00000050    0.00778807    0.00725918
     atom   11 type  3   force =     0.00000084   -0.00778766    0.00726241
     atom   12 type  3   force =    -0.00000027    0.00370349   -0.00797019
     The Hubbard contrib.    to forces
     atom    1 type  1   force =     0.00000000    0.00000000    0.00000000
     atom    2 type  2   force =     0.00000000    0.00000000    0.00000000
     atom    3 type  3   force =     0.00000000    0.00000000    0.00000000
     atom    4 type  1   force =     0.00000000    0.00000000    0.00000000
     atom    5 type  1   force =     0.00000000    0.00000000    0.00000000
     atom    6 type  3   force =     0.00000000    0.00000000    0.00000000
     atom    7 type  3   force =     0.00000000    0.00000000    0.00000000
     atom    8 type  2   force =     0.00000000    0.00000000    0.00000000
     atom    9 type  1   force =     0.00000000    0.00000000    0.00000000
     atom   10 type  3   force =     0.00000000    0.00000000    0.00000000
     atom   11 type  3   force =     0.00000000    0.00000000    0.00000000
     atom   12 type  3   force =     0.00000000    0.00000000    0.00000000
     The SCF correction term to forces
     atom    1 type  1   force =    -0.00000001    0.00069947   -0.00005967
     atom    2 type  2   force =     0.00000006    0.00078392   -0.00017976
     atom    3 type  3   force =     0.00000001   -0.00007693    0.00000337
     atom    4 type  1   force =     0.00000001   -0.00002332   -0.00000564
     atom    5 type  1   force =     0.00000000    0.00002332   -0.00000565
     atom    6 type  3   force =     0.00000001    0.00025356   -0.00000129
     atom    7 type  3   force =     0.00000001    0.00007694    0.00000337
     atom    8 type  2   force =     0.00000005   -0.00078405   -0.00017989
     atom    9 type  1   force =    -0.00000002   -0.00069947   -0.00005966
     atom   10 type  3   force =     0.00000000   -0.00016604   -0.00000161
     atom   11 type  3   force =     0.00000000    0.00016604   -0.00000160
     atom   12 type  3   force =     0.00000000   -0.00025355   -0.00000129

     Total force =     0.086153     Total SCF correction =     0.001574

     BFGS Geometry Optimization
     Energy error            =      0.0E+00 Ry
     Gradient error          =      3.3E-02 Ry/Bohr

     number of scf cycles    =   1
     number of bfgs steps    =   0

     energy             new  =   -1654.3379736440 Ry

     new trust radius        =       0.0381280171 bohr
     new conv_thr            =       0.0000010000 Ry

ATOMIC_POSITIONS (angstrom)
Mn           -3.6458040500        6.3080082161        0.0043560819
Ni           -3.6458040500        6.3182261878        2.5266122895
As           -3.6458040682        8.4266550989        6.3232232092
Mn           -1.8229020250        3.1588397673       -0.0114725395
Mn           -1.8229020250        3.1558780817        2.5110604605
As           -1.8229020432        5.2724119646        6.2888932619
As           -1.8229020068        7.3601395237        3.8006902092
Ni           -0.0000000000       -0.0035083388        0.0040792895
Mn            0.0000000000        0.0067096329        2.5268890819
As           -0.0000000182        2.1125089975        6.3099181970
As            0.0000000182        4.2022088515        3.7873851970
As            1.8229020432        1.0423058844        3.7663602619

     Writing config-only to output data dir ./tutorial.save/
     NEW-OLD atomic charge density approx. for the potential

[...]

     Total force =     0.087673     Total SCF correction =     0.001222
     Energy error            =      7.4E-03 Ry
     Gradient error          =      2.9E-02 Ry/Bohr

[...]

     energy             old  =   -1654.3379736440 Ry
     energy             new  =   -1654.3453784204 Ry

     CASE: energy            _new < energy            _old

     WARNING: bfgs curvature condition failed, Theta= 0.806
     new trust radius        =       0.0419408188 bohr
     new conv_thr            =       0.0000002881 Ry

[...]

     negative rho (up, down):  1.008E-03 0.000E+00

[...]

     WARNING: bfgs curvature condition failed, Theta= 0.180
     new trust radius        =       0.2814276081 bohr
     new conv_thr            =       0.0000010000 Ry

[...]

     iteration #  1     ecut=    40.42 Ry     beta= 0.70
     Davidson diagonalization with overlap
     c_bands:  1 eigenvalues not converged
     ethr =  1.00E-06,  avg # of iterations = 20.0

[...]

     CASE: energy            _new > energy            _old

[...]

     Threshold (ethr) on eigenvalues was too large:
     Diagonalizing with lowered threshold

     Davidson diagonalization with overlap
     ethr =  2.42E-08,  avg # of iterations =  2.0

[...]

     Threshold (ethr) on eigenvalues was too large:
     Diagonalizing with lowered threshold

     Davidson diagonalization with overlap
     ethr =  8.42E-08,  avg # of iterations =  4.0

[...]

     iteration #  1     ecut=    40.42 Ry     beta= 0.70
     Davidson diagonalization with overlap
     c_bands:  1 eigenvalues not converged
     ethr =  1.00E-06,  avg # of iterations = 20.0

[...]

     new trust radius        =       0.0000427211 bohr

     trust_radius < trust_radius_min

     resetting bfgs history

     new conv_thr            =       0.0000010000 Ry

[...]

     CASE: energy            _new < energy            _old

[...]

     trust_radius < trust_radius_min

     resetting bfgs history

     new conv_thr            =       0.0000010000 Ry

[...]

     new trust radius        =       0.0994476029 bohr
     new conv_thr            =       0.0000010000 Ry

[...]

     Self-consistent Calculation

[...]

     total energy              =   -1654.81486940 Ry
     estimated scf accuracy    <       0.00000158 Ry

     iteration # 24     ecut=    40.42 Ry     beta= 0.70
     Davidson diagonalization with overlap
     ethr =  1.25E-09,  avg # of iterations =  2.0

[...]

     End of self-consistent calculation

          k = 0.0000 0.0000 0.0000 (  5061 PWs)   bands (ev):

   -90.1015 -90.0728 -65.4690 -65.4239 -65.3132 -65.3132 -49.9819 -49.9275
   -49.9055 -49.8243 -49.6188 -49.5896 -34.7837 -34.4386 -34.4384 -34.4231
   -34.3679 -34.3672 -34.3451 -34.3022 -34.2694 -34.2259 -33.9974 -33.9973
    -1.1244   0.1107   0.3620   2.2890   2.4893   2.8111   6.6071   7.4889
     7.6908   7.9157   8.5621   8.8477   9.2197   9.3675   9.5248   9.5369
     9.6404  10.0765  10.1375  10.3571  10.4530  10.7540  10.8878  10.9475
    10.9916  11.2201  11.4457  11.5742  11.7171  11.7861  12.0858  12.1690
    12.2746  12.5217  12.7650  12.7696  12.7850  13.2137  13.4566  13.5320
    13.6081  13.6414  14.3277  14.6080  14.6246  14.7446  15.2348  15.6638
    16.2374  16.5802  17.1884  17.3037

     the Fermi energy is    13.4575 ev

!    total energy              =   -1654.81482768 Ry
     estimated scf accuracy    <       0.00000004 Ry
     smearing contrib. (-TS)   =      -0.02565919 Ry
     internal energy E=F+TS    =   -1654.78916849 Ry

     The total energy is F=E-TS. E is the sum of the following terms:
     one-electron contribution =   -1080.26324985 Ry
     hartree contribution      =     603.37997004 Ry
     xc contribution           =    -249.74209448 Ry
     ewald contribution        =    -928.16379421 Ry

     convergence has been achieved in  24 iterations

[...]

     Forces acting on atoms (cartesian axes, Ry/au):

     atom    1 type  1   force =     0.00000000   -0.01477815    0.01899776
     atom    2 type  2   force =     0.00000000    0.02634854   -0.08868306
     atom    3 type  3   force =     0.00000000    0.04643292    0.00272203
     atom    4 type  1   force =     0.00000000    0.00744651    0.04805722
     atom    5 type  1   force =     0.00000000   -0.00744651    0.04805722
     atom    6 type  3   force =     0.00000000    0.00285026    0.03613723
     atom    7 type  3   force =     0.00000000   -0.04643292    0.00272203
     atom    8 type  2   force =     0.00000000   -0.02634854   -0.08868306
     atom    9 type  1   force =     0.00000000    0.01477815    0.01899776
     atom   10 type  3   force =     0.00000000    0.02503088   -0.01723119
     atom   11 type  3   force =     0.00000000   -0.02503088   -0.01723119
     atom   12 type  3   force =     0.00000000   -0.00285026    0.03613723
     The non-local contrib.  to forces
     atom    1 type  1   force =     0.00000000    0.17956451    0.06987666
     atom    2 type  2   force =     0.00000000    0.91057249   -0.53217786
     atom    3 type  3   force =     0.00000000    0.07285887   -0.09080015
     atom    4 type  1   force =     0.00000000    0.13260351   -0.16156323
     atom    5 type  1   force =     0.00000000   -0.13260351   -0.16156323
     atom    6 type  3   force =     0.00000000    0.00685157    0.01823727
     atom    7 type  3   force =     0.00000000   -0.07285887   -0.09080015
     atom    8 type  2   force =     0.00000000   -0.91057249   -0.53217786
     atom    9 type  1   force =     0.00000000   -0.17956451    0.06987666
     atom   10 type  3   force =     0.00000000   -0.02751454   -0.07280397
     atom   11 type  3   force =     0.00000000    0.02751454   -0.07280397
     atom   12 type  3   force =     0.00000000   -0.00685157    0.01823727
     The ionic contribution  to forces
     atom    1 type  1   force =    -0.00000000    0.80431759    6.09701962
     atom    2 type  2   force =     0.00000004    3.24348803   -5.45410439
     atom    3 type  3   force =     0.00000017   -0.92909077   -0.54770617
     atom    4 type  1   force =     0.00000007   -2.39101886    0.84217675
     atom    5 type  1   force =    -0.00000007    2.39101886    0.84217675
     atom    6 type  3   force =     0.00000014    1.02908977    1.94733238
     atom    7 type  3   force =    -0.00000017    0.92909077   -0.54770617
     atom    8 type  2   force =    -0.00000004   -3.24348803   -5.45410439
     atom    9 type  1   force =     0.00000000   -0.80431759    6.09701962
     atom   10 type  3   force =     0.00000018    0.34894084   -2.88471819
     atom   11 type  3   force =    -0.00000018   -0.34894084   -2.88471819
     atom   12 type  3   force =    -0.00000014   -1.02908977    1.94733238
     The local contribution  to forces
     atom    1 type  1   force =     0.00000000   -0.97461220   -6.15885906
     atom    2 type  2   force =    -0.00000000   -3.98224860    5.81161945
     atom    3 type  3   force =    -0.00000020    0.89788005    0.58746910
     atom    4 type  1   force =     0.00000000    2.25931157   -0.66861456
     atom    5 type  1   force =     0.00000000   -2.25931157   -0.66861456
     atom    6 type  3   force =    -0.00000017   -1.02329877   -1.92659905
     atom    7 type  3   force =     0.00000020   -0.89788005    0.58746910
     atom    8 type  2   force =    -0.00000000    3.98224860    5.81161945
     atom    9 type  1   force =    -0.00000000    0.97461220   -6.15885906
     atom   10 type  3   force =    -0.00000020   -0.29862367    2.87686297
     atom   11 type  3   force =     0.00000020    0.29862367    2.87686297
     atom   12 type  3   force =     0.00000017    1.02329877   -1.92659905
     The core correction contribution to forces
     atom    1 type  1   force =     0.00009565   -0.02424312   -0.00880035
     atom    2 type  2   force =    -0.00564501   -0.14514345    0.05557606
     atom    3 type  3   force =     0.00002595    0.00483561    0.03407003
     atom    4 type  1   force =     0.00002159    0.00651067    0.01633802
     atom    5 type  1   force =     0.00002226   -0.00657547    0.01637400
     atom    6 type  3   force =    -0.00001080   -0.00989527   -0.02252103
     atom    7 type  3   force =    -0.00000743   -0.00476508    0.03404476
     atom    8 type  2   force =     0.00101677    0.14568503    0.07729162
     atom    9 type  1   force =     0.00002414    0.02429774   -0.00886273
     atom   10 type  3   force =     0.00000595    0.00230209    0.04372083
     atom   11 type  3   force =    -0.00000077   -0.00230592    0.04373792
     atom   12 type  3   force =     0.00001016    0.00989266   -0.02248886
     The Hubbard contrib.    to forces
     atom    1 type  1   force =     0.00000000    0.00000000    0.00000000
     atom    2 type  2   force =     0.00000000    0.00000000    0.00000000
     atom    3 type  3   force =     0.00000000    0.00000000    0.00000000
     atom    4 type  1   force =     0.00000000    0.00000000    0.00000000
     atom    5 type  1   force =     0.00000000    0.00000000    0.00000000
     atom    6 type  3   force =     0.00000000    0.00000000    0.00000000
     atom    7 type  3   force =     0.00000000    0.00000000    0.00000000
     atom    8 type  2   force =     0.00000000    0.00000000    0.00000000
     atom    9 type  1   force =     0.00000000    0.00000000    0.00000000
     atom   10 type  3   force =     0.00000000    0.00000000    0.00000000
     atom   11 type  3   force =     0.00000000    0.00000000    0.00000000
     atom   12 type  3   force =     0.00000000    0.00000000    0.00000000
     The SCF correction term to forces
     atom    1 type  1   force =     0.00000002    0.00022238    0.00010385
     atom    2 type  2   force =    -0.00006321   -0.00007917   -0.00013778
     atom    3 type  3   force =     0.00000000   -0.00001565    0.00001385
     atom    4 type  1   force =    -0.00000001    0.00000722    0.00001406
     atom    5 type  1   force =     0.00000001   -0.00000722    0.00001405
     atom    6 type  3   force =     0.00000005    0.00010168   -0.00001664
     atom    7 type  3   force =    -0.00000017    0.00001549    0.00001346
     atom    8 type  2   force =     0.00004593    0.00001910   -0.00014680
     atom    9 type  1   force =     0.00000003   -0.00022240    0.00010391
     atom   10 type  3   force =     0.00000005   -0.00007574    0.00001042
     atom   11 type  3   force =     0.00000002    0.00007579    0.00001041
     atom   12 type  3   force =     0.00000004   -0.00010164   -0.00001664

     Total force =     0.178349     Total SCF correction =     0.000456
     Energy error            =      4.3E-02 Ry
     Gradient error          =      8.9E-02 Ry/Bohr

     number of scf cycles    =  50
     number of bfgs steps    =  28

     energy             old  =   -1654.8583242194 Ry
     energy             new  =   -1654.8148276771 Ry

     CASE: energy            _new > energy            _old

     new trust radius        =       0.0298530344 bohr

     The maximum number of steps has been reached.

     End of BFGS Geometry Optimization

ATOMIC_POSITIONS (angstrom)
Mn           -3.6458040500        5.8663351817       -0.1612037388
Ni           -3.6458040500        6.5727494915        2.5800005740
As           -3.6458040682        8.6675558833        6.8662819865
Mn           -1.8229020250        3.2117159927       -0.3252217437
Mn           -1.8229020250        3.1030018563        2.1973112563
As           -1.8229020432        5.2497484257        6.2735997832
As           -1.8229020068        7.1192387393        4.3437489865
Ni            0.0000000000       -0.2580316425        0.0574675740
Mn            0.0000000000        0.4483826673        2.3613292612
As           -0.0000000182        2.2690337370        6.2080736388
As            0.0000000182        4.0456841120        3.6855406388
As            1.8229020432        1.0649694233        3.7510667832

     Writing config-only to output data dir ./tutorial.save/
     NEW-OLD atomic charge density approx. for the potential

     Check: negative core charge=   -0.000068

     negative rho (up, down):  2.671E-02 0.000E+00

     Writing all to output data dir ./tutorial.save/

     General routines

     Parallel routines

   This run was terminated on:  15:17: 4  30May2023

   JOB DONE.