     Program PWSCF v.7.2 starts on 30May2023 at 15: 1: 3

     Waiting for input...
     Reading input from standard input
Warning: card &CELL ignored
Warning: card / ignored

     Current dimensions of program PWSCF are:
     Max number of different atomic species (ntypx) = 10
     Max number of k-points (npk) =  40000
     Max angular momentum in pseudopotentials (lmaxx) =  4
     file Mn.pbesol-spn-rrkjus_psl.0.3.1.UPF: wavefunction(s)  3D renormalized
     Message from routine setup:
     using ibrav=0 with symmetry is DISCOURAGED, use correct ibrav instead

     R & G space division:  proc/nbgrp/npool/nimage =      28
     Subspace diagonalization in iterative solution of the eigenvalue problem:
     a serial algorithm will be used

     Using Slab Decomposition

     bravais-lattice index     =            0
     lattice parameter (alat)  =      11.7626  a.u.
     unit-cell volume          =    1567.6197 (a.u.)^3
     number of atoms/cell      =           16
     number of atomic types    =            3
     number of electrons       =       181.00
     number of Kohn-Sham states=          109
     kinetic-energy cutoff     =      40.4242  Ry
     charge density cutoff     =     161.6969  Ry
     scf convergence threshold =      1.0E-06
     mixing beta               =       0.7000
     number of iterations used =            8  plain     mixing
     energy convergence thresh.=      1.0E-04
     force convergence thresh. =      1.0E-03
     Exchange-correlation= PBESOL
                           (   1   4  10   8   0   0   0)
     nstep                     =           50

     celldm(1)=  11.762627  celldm(2)=   0.000000  celldm(3)=   0.000000
     celldm(4)=   0.000000  celldm(5)=   0.000000  celldm(6)=   0.000000

     crystal axes: (cart. coord. in units of alat)
               a(1) = (   0.585717   0.000000   0.810516 )
               a(2) = (  -0.585717   1.014492   0.810516 )
               a(3) = (   0.000000   0.000000   1.621031 )

     reciprocal axes: (cart. coord. in units 2 pi/alat)
               b(1) = (  1.707309  0.985715  0.000000 )
               b(2) = (  0.000000  0.985715  0.000000 )
               b(3) = ( -0.853655 -0.985715  0.616891 )

     PseudoPot. # 1 for Ni read from file:
     /home/valmzztt/Intermetallic_alloys/pseudos/Ni.pbesol-spn-rrkjus_psl.1.0.0.UPF
     MD5 check sum: 6fc0a587bf949a08f2faed986b854013
     Pseudo is Ultrasoft + core correction, Zval = 18.0
     Generated using &quot;atomic&quot; code by A. Dal Corso  v.6.3
     Using radial grid of 1195 points,  6 beta functions with:
                l(1) =   0
                l(2) =   0
                l(3) =   1
                l(4) =   1
                l(5) =   2
                l(6) =   2
     Q(r) pseudized with 0 coefficients

     PseudoPot. # 2 for As read from file:
     /home/valmzztt/Intermetallic_alloys/pseudos/As.pbesol-n-rrkjus_psl.1.0.0.UPF
     MD5 check sum: 2fb13bbab3d0b4e108be5408f3d6fe7c
     Pseudo is Ultrasoft + core correction, Zval =  5.0
     Generated using &quot;atomic&quot; code by A. Dal Corso  v.6.3
     Using radial grid of 1209 points,  4 beta functions with:
                l(1) =   0
                l(2) =   0
                l(3) =   1
                l(4) =   1
     Q(r) pseudized with 0 coefficients

     PseudoPot. # 3 for Mn read from file:
     /home/valmzztt/Intermetallic_alloys/pseudos/Mn.pbesol-spn-rrkjus_psl.0.3.1.UPF
     MD5 check sum: 61e28eea34dae291f95a967fe31318f1
     Pseudo is Ultrasoft + core correction, Zval = 15.0
     Generated using &quot;atomic&quot; code by A. Dal Corso  v.6.3
     Using radial grid of 1187 points,  6 beta functions with:
                l(1) =   0
                l(2) =   0
                l(3) =   1
                l(4) =   1
                l(5) =   2
                l(6) =   2
     Q(r) pseudized with 0 coefficients

     atomic species   valence    mass     pseudopotential
        Ni            18.00    58.69340     Ni( 1.00)
        As             5.00    74.92159     As( 1.00)
        Mn            15.00    54.93804     Mn( 1.00)

      4 Sym. Ops., with inversion, found ( 2 have fractional translation)

   Cartesian axes

     site n.     atom                  positions (alat units)
         1           Ni  tau(   1) = (  -0.2928585   0.5072458   0.4052578  )
         2           Ni  tau(   2) = (  -0.2928585   0.5072458   0.8105156  )
         3           Ni  tau(   3) = (  -0.2928585   0.5072458   1.2157734  )
         4           Ni  tau(   4) = (  -0.2928585   0.5072458   1.6210312  )
         5           As  tau(   5) = (  -0.2928585   0.8454097   1.0131445  )
         6           As  tau(   6) = (  -0.2928585   0.8454097   1.8236601  )
         7           Ni  tau(   7) = (   0.0000000   0.0000000   0.0000000  )
         8           Ni  tau(   8) = (   0.0000000   0.0000000   0.4052578  )
         9           Ni  tau(   9) = (   0.0000000   0.0000000   0.8105156  )
        10           Mn  tau(  10) = (   0.0000000   0.0000000   1.2157734  )
        11           As  tau(  11) = (  -0.0000000   0.3381639   1.0131445  )
        12           As  tau(  12) = (  -0.0000000   0.3381639   1.8236601  )
        13           As  tau(  13) = (   0.0000000   0.6763278   1.4184023  )
        14           As  tau(  14) = (   0.0000000   0.6763278   2.2289179  )
        15           As  tau(  15) = (   0.2928585   0.1690819   1.4184023  )
        16           As  tau(  16) = (   0.2928585   0.1690819   2.2289179  )

     number of k points=     1  Gaussian smearing, width (Ry)=  0.0147
                       cart. coord. in units 2pi/alat
        k(    1) = (   0.0000000   0.0000000   0.0000000), wk =   2.0000000

     Check: negative core charge=   -0.000023

     Initial potential from superposition of free atoms

     starting charge     180.9961, renormalised to     181.0000
     Starting wfcs are  112 randomized atomic wfcs

     Self-consistent Calculation

     iteration #  1     ecut=    40.42 Ry     beta= 0.70
     Davidson diagonalization with overlap
     ethr =  1.00E-02,  avg # of iterations =  4.0

     total energy              =   -2747.77925825 Ry
     estimated scf accuracy    <       3.04934448 Ry

[...]

     iteration # 12     ecut=    40.42 Ry     beta= 0.70
     Davidson diagonalization with overlap
     c_bands:  1 eigenvalues not converged
     ethr =  5.01E-06,  avg # of iterations = 20.0

[...]

     End of self-consistent calculation

          k = 0.0000 0.0000 0.0000 (  6739 PWs)   bands (ev):

   -90.5132 -90.5130 -90.2829 -90.2826 -90.2690 -90.2402 -90.2395 -65.7197
   -50.6269 -50.5827 -50.4741 -50.4195 -50.3742 -50.3705 -50.3636 -50.3325
   -50.3273 -50.3058 -50.2939 -50.2730 -50.2656 -50.2578 -50.2377 -50.1856
   -50.1550 -50.0858 -50.0816 -50.0761 -50.0398 -34.9358 -34.5891 -34.4171
    -1.5132   0.8439   1.2401   1.2520   1.2571   1.3126   1.5071   2.1481
     6.0187   6.1102   6.6207   6.6635   6.7281   6.7286   8.2518   8.3128
     8.3141   8.3491   8.6406   8.6834   8.7775   8.9382   9.0149   9.0896
     9.5236   9.7547   9.7978   9.8479   9.9015   9.9053   9.9088  10.4347
    10.4619  10.8031  10.9026  10.9130  10.9233  10.9271  10.9633  11.1104
    11.1457  11.1598  11.2729  11.3112  11.4250  11.5066  11.5070  11.5686
    11.5911  11.6219  11.6561  11.7919  11.9737  12.0967  12.2449  12.2483
    12.4765  12.5771  12.8661  12.9230  13.0149  13.0258  13.2832  14.5789
    15.3804  15.6265  15.6296  15.6364  15.6850  15.9470  16.0178  16.1632
    16.6725  17.4554  18.0808  18.8584  18.9685

     the Fermi energy is    12.7910 ev

!    total energy              =   -2749.68215365 Ry
     estimated scf accuracy    <       0.00000074 Ry
     smearing contrib. (-TS)   =      -0.02039677 Ry
     internal energy E=F+TS    =   -2749.66175688 Ry

     The total energy is F=E-TS. E is the sum of the following terms:
     one-electron contribution =   -2039.37100995 Ry
     hartree contribution      =    1109.19287887 Ry
     xc contribution           =    -357.42567132 Ry
     ewald contribution        =   -1462.05795447 Ry

     convergence has been achieved in  22 iterations

     Forces acting on atoms (cartesian axes, Ry/au):

     atom    1 type  1   force =    -0.00184753    0.00000000    0.00000000
     atom    2 type  1   force =     0.00000000    0.00000000    0.00000000
     atom    3 type  1   force =     0.00184753    0.00000000    0.00000000
     atom    4 type  1   force =     0.00000000    0.00000000    0.00000000
     atom    5 type  2   force =     0.00422285    0.04058256    0.00335157
     atom    6 type  2   force =    -0.00422285    0.04058256    0.00335157
     atom    7 type  1   force =     0.00000000   -0.00037932    0.02194926
     atom    8 type  1   force =     0.00000000    0.00000000    0.00000000
     atom    9 type  1   force =     0.00000000    0.00037932   -0.02194926
     atom   10 type  3   force =     0.00000000    0.00000000    0.00000000
     atom   11 type  2   force =     0.00000000    0.01688598    0.00939547
     atom   12 type  2   force =     0.00000000    0.01482673    0.00460609
     atom   13 type  2   force =     0.00000000   -0.01688598   -0.00939547
     atom   14 type  2   force =     0.00000000   -0.01482673   -0.00460609
     atom   15 type  2   force =    -0.00422285   -0.04058256   -0.00335157
     atom   16 type  2   force =     0.00422285   -0.04058256   -0.00335157
     The non-local contrib.  to forces
     atom    1 type  1   force =    -0.01053127   -0.00000000    0.00000000
     atom    2 type  1   force =     0.00000000    0.00000000    0.00000000
     atom    3 type  1   force =     0.01053127    0.00000000    0.00000000
     atom    4 type  1   force =     0.00000000    0.00000000    0.00000000
     atom    5 type  2   force =    -0.00198549    0.00178990    0.01251348
     atom    6 type  2   force =     0.00198549    0.00178990    0.01251348
     atom    7 type  1   force =     0.00000000   -0.03674502   -0.02638531
     atom    8 type  1   force =     0.00000000    0.00000000    0.00000000
     atom    9 type  1   force =     0.00000000    0.03674502    0.02638531
     atom   10 type  3   force =     0.00000000    0.00000000    0.00000000
     atom   11 type  2   force =     0.00000000   -0.00026374   -0.03063750
     atom   12 type  2   force =     0.00000000    0.02758634    0.01169646
     atom   13 type  2   force =     0.00000000    0.00026374    0.03063750
     atom   14 type  2   force =     0.00000000   -0.02758634   -0.01169646
     atom   15 type  2   force =     0.00198549   -0.00178990   -0.01251348
     atom   16 type  2   force =    -0.00198549   -0.00178990   -0.01251348
     The ionic contribution  to forces
     atom    1 type  1   force =    -1.18467364    0.00000000    0.00000000
     atom    2 type  1   force =    -0.00000000    0.00000000    0.00000000
     atom    3 type  1   force =     1.18467364    0.00000000   -0.00000000
     atom    4 type  1   force =    -0.00000000    0.00000000    0.00000000
     atom    5 type  2   force =     0.77173659    0.52918961    0.45203416
     atom    6 type  2   force =    -0.77173627    0.52918963    0.45203419
[...]

ATOMIC_POSITIONS (angstrom)
Ni           -1.8238796931        3.1573589245        2.5225330000
Ni           -1.8229020250        3.1573589245        5.0450660000
Ni           -1.8219243569        3.1573589245        7.5675990000
Ni           -1.8229020250        3.1573589245       10.0901320000
As           -1.8206674085        5.2837402495        6.3081060757
As           -1.8251366779        5.2837402495       11.3531720757
Ni           -0.0000000000       -0.0002007275        0.0116150493
Ni            0.0000000000        0.0000000000        2.5225330000
Ni            0.0000000000        0.0002007275        5.0334509507
Mn            0.0000000000        0.0000000000        7.5675990000
As           -0.0000000182        2.1138416368        6.3113043664
As           -0.0000000182        2.1127519302       11.3538359386
As            0.0000000182        4.2008762122        8.8238936336
As            0.0000000182        4.2019659188       13.8714940614
As            1.8206674085        1.0309775995        8.8270919243
As            1.8251366779        1.0309775995       13.8721579243

     Writing config-only to output data dir ./tutorial.save/
     NEW-OLD atomic charge density approx. for the potential

[...]

     Total force =     0.083982     Total SCF correction =     0.000236
     Energy error            =      8.4E-03 Ry
     Gradient error          =      3.5E-02 Ry/Bohr

[...]

     energy             old  =   -2749.6821536475 Ry
     energy             new  =   -2749.6905785390 Ry

     CASE: energy            _new < energy            _old

     WARNING: bfgs curvature condition failed, Theta= 0.901
     new trust radius        =       0.0450330043 bohr
     new conv_thr            =       0.0000003514 Ry

[...]

     negative rho (up, down):  2.158E-02 0.000E+00

[...]

     CASE: energy            _new > energy            _old

[...]

     negative rho (up, down):  1.675E-03 0.000E+00

[...]

     new trust radius        =       0.0000020181 bohr

     trust_radius < trust_radius_min

     resetting bfgs history

     new conv_thr            =       0.0000001779 Ry

[...]

     new trust radius        =       0.0000043054 bohr

     trust_radius < trust_radius_min

     resetting bfgs history

     new conv_thr            =       0.0000001186 Ry

[...]

     WARNING: bfgs curvature condition failed, Theta= 0.922
     new trust radius        =       0.0146719957 bohr
     new conv_thr            =       0.0000000574 Ry

[...]

     CASE: energy            _new > energy            _old

[...]

     number of scf cycles    =  35
     number of bfgs steps    =  24

     energy             old  =   -2749.7267251760 Ry
     energy             new  =   -2749.7268184707 Ry

     CASE: energy            _new < energy            _old

     new trust radius        =       0.0068590108 bohr
     new conv_thr            =       0.0000000100 Ry

ATOMIC_POSITIONS (angstrom)
Ni           -1.7989356375        3.1573589245        2.5225330000
Ni           -1.8229020250        3.1573589245        5.0450660000
Ni           -1.8468684125        3.1573589245        7.5675990000
Ni           -1.8229020250        3.1573589245       10.0901320000
As           -1.8373568751        5.4126132858        6.2708982140
As           -1.8084472113        5.4126132858       11.3159642140
Ni           -0.0000000000        0.2466162942        0.1326847126
Ni            0.0000000000       -0.0000000000        2.5225330000
Ni            0.0000000000       -0.2466162942        4.9123812874
Mn            0.0000000000       -0.0000000000        7.5675990000
As           -0.0000000182        2.1878663936        6.4062074433
As           -0.0000000182        2.2351896825       11.3834579022
As            0.0000000182        4.1268514554        8.7289905567
As            0.0000000182        4.0795281665       13.8418720978
As            1.8373568751        0.9021045632        8.8642997860
As            1.8084472113        0.9021045632       13.9093657860

     Writing config-only to output data dir ./tutorial.save/
     NEW-OLD atomic charge density approx. for the potential

     Check: negative core charge=   -0.000023

     Self-consistent Calculation

[...]

     total energy              =   -2749.72685671 Ry
     estimated scf accuracy    <       0.00000001 Ry

     iteration # 22     ecut=    40.42 Ry     beta= 0.70
     Davidson diagonalization with overlap
     ethr =  6.42E-12,  avg # of iterations =  2.0

     End of self-consistent calculation

          k = 0.0000 0.0000 0.0000 (  6739 PWs)   bands (ev):

   -90.7114 -90.7105 -90.6468 -90.6467 -90.5501 -90.5497 -90.4897 -66.0358
   -50.8416 -50.7763 -50.7642 -50.7387 -50.7227 -50.7142 -50.7052 -50.6614
   -50.6560 -50.5897 -50.5896 -50.5749 -50.5064 -50.4974 -50.4779 -50.4542
   -50.4357 -50.4053 -50.3319 -50.2383 -50.2152 -35.1601 -34.9343 -34.7504
    -1.5293   0.9858   1.1155   1.1513   1.1574   1.3789   1.4331   2.2150
     5.9651   6.5884   6.6829   6.7310   6.7882   6.9422   8.0630   8.0787
     8.1637   8.2816   8.3631   8.4834   8.5173   8.6016   8.7719   9.2899
     9.4127   9.5664   9.6163   9.6635   9.7471   9.7897   9.8504  10.2082
    10.2988  10.5555  10.5579  10.5684  10.7370  10.7750  10.8063  10.8463
    10.8636  10.9508  10.9983  11.1430  11.1937  11.2043  11.2506  11.3665
    11.4027  11.4809  11.5810  11.6105  11.6983  11.8741  11.9087  11.9512
    12.0396  12.4042  12.7466  12.7529  12.8676  13.0377  13.7659  14.0014
    15.2381  15.4820  15.5644  15.6825  15.7087  15.9609  16.0740  16.2843
    16.7397  17.2582  18.0888  18.7270  18.9659

     the Fermi energy is    12.6492 ev

!    total energy              =   -2749.72685671 Ry
     estimated scf accuracy    <          2.2E-09 Ry
     smearing contrib. (-TS)   =      -0.01744124 Ry
     internal energy E=F+TS    =   -2749.70941547 Ry

     The total energy is F=E-TS. E is the sum of the following terms:
     one-electron contribution =   -2048.26354765 Ry
     hartree contribution      =    1112.30242626 Ry
     xc contribution           =    -357.37818314 Ry
     ewald contribution        =   -1456.37011094 Ry

     convergence has been achieved in  22 iterations

     Forces acting on atoms (cartesian axes, Ry/au):

     atom    1 type  1   force =    -0.00071120    0.00000000    0.00000000
     atom    2 type  1   force =     0.00000000    0.00000000    0.00000000
     atom    3 type  1   force =     0.00071120    0.00000000    0.00000000
     atom    4 type  1   force =     0.00000000    0.00000000    0.00000000
     atom    5 type  2   force =    -0.00017183    0.00020941   -0.00022897
     atom    6 type  2   force =     0.00017183    0.00020941   -0.00022897
     atom    7 type  1   force =     0.00000000   -0.00041685   -0.00060400
     atom    8 type  1   force =     0.00000000    0.00000000    0.00000000
     atom    9 type  1   force =    -0.00000000    0.00041685    0.00060400
     atom   10 type  3   force =     0.00000000    0.00000000    0.00000000
     atom   11 type  2   force =    -0.00000000    0.00011939   -0.00058790
     atom   12 type  2   force =     0.00000000   -0.00009571    0.00031797
     atom   13 type  2   force =     0.00000000   -0.00011939    0.00058790
     atom   14 type  2   force =     0.00000000    0.00009571   -0.00031797
     atom   15 type  2   force =     0.00017183   -0.00020941    0.00022897
     atom   16 type  2   force =    -0.00017183   -0.00020941    0.00022897
     The non-local contrib.  to forces
     atom    1 type  1   force =    -0.00204438   -0.00000000    0.00000000
     atom    2 type  1   force =     0.00000000    0.00000000    0.00000000
     atom    3 type  1   force =     0.00204438    0.00000000    0.00000000
     atom    4 type  1   force =     0.00000000    0.00000000    0.00000000
     atom    5 type  2   force =    -0.02872717    0.00636608    0.00918016
     atom    6 type  2   force =     0.02872717    0.00636608    0.00918016
     atom    7 type  1   force =     0.00000000   -0.02396700    0.02019153
     atom    8 type  1   force =     0.00000000    0.00000000    0.00000000
     atom    9 type  1   force =     0.00000000    0.02396700   -0.02019153
     atom   10 type  3   force =     0.00000000    0.00000000    0.00000000
     atom   11 type  2   force =     0.00000000    0.04737480   -0.01929361
     atom   12 type  2   force =     0.00000000    0.01535613    0.01353150
     atom   13 type  2   force =     0.00000000   -0.04737480    0.01929361
     atom   14 type  2   force =     0.00000000   -0.01535613   -0.01353150
     atom   15 type  2   force =     0.02872717   -0.00636608   -0.00918016
     atom   16 type  2   force =    -0.02872717   -0.00636608   -0.00918016
     The ionic contribution  to forces
     atom    1 type  1   force =    -2.91895522   -0.00000000    0.00000001
     atom    2 type  1   force =     0.00000000    0.00000000   -0.00000000
     atom    3 type  1   force =     2.91895522    0.00000000   -0.00000001
     atom    4 type  1   force =    -0.00000000    0.00000000    0.00000000
     atom    5 type  2   force =     0.85367168   -0.61872211    0.45328549
     atom    6 type  2   force =    -0.85367128   -0.61872204    0.45328558
     atom    7 type  1   force =     0.00000004   -2.66988003   -9.79876387
     atom    8 type  1   force =    -0.00000000   -0.00000000   -0.00000000
     atom    9 type  1   force =    -0.00000004    2.66988003    9.79876387
     atom   10 type  3   force =     0.00000000   -0.00000000   -0.00000000
     atom   11 type  2   force =     0.00000022   -2.69661878   -0.45051396
     atom   12 type  2   force =     0.00000018    0.44506371    0.34355545
     atom   13 type  2   force =    -0.00000022    2.69661878    0.45051396
     atom   14 type  2   force =    -0.00000018   -0.44506371   -0.34355545
     atom   15 type  2   force =    -0.85367168    0.61872211   -0.45328549
     atom   16 type  2   force =     0.85367128    0.61872204   -0.45328558
     The local contribution  to forces
     atom    1 type  1   force =     2.91961045    0.00000000    0.00000000
     atom    2 type  1   force =    -0.00000000    0.00000000   -0.00000000
     atom    3 type  1   force =    -2.91961045    0.00000000   -0.00000000
     atom    4 type  1   force =    -0.00000000    0.00000000    0.00000000
     atom    5 type  2   force =    -0.83372531    0.60146033   -0.46122815
     atom    6 type  2   force =     0.83372486    0.60146026   -0.46122824
     atom    7 type  1   force =     0.00000000    2.69515089    9.77938108
     atom    8 type  1   force =     0.00000000   -0.00000002   -0.00000000
     atom    9 type  1   force =    -0.00000000   -2.69515092   -9.77938108
     atom   10 type  3   force =     0.00000000   -0.00000001    0.00000000
     atom   11 type  2   force =    -0.00000024    2.64945283    0.45614291
     atom   12 type  2   force =    -0.00000020   -0.45772434   -0.35167517
     atom   13 type  2   force =     0.00000024   -2.64945283   -0.45614291
     atom   14 type  2   force =     0.00000020    0.45772434    0.35167517
     atom   15 type  2   force =     0.83372531   -0.60146033    0.46122815
     atom   16 type  2   force =    -0.83372486   -0.60146026    0.46122824
     The core correction contribution to forces
     atom    1 type  1   force =     0.00069347   -0.00000168    0.00001309
     atom    2 type  1   force =    -0.00000000   -0.00000000   -0.00000000
     atom    3 type  1   force =    -0.00069347    0.00000168   -0.00001309
     atom    4 type  1   force =    -0.00000000   -0.00000000    0.00000000
     atom    5 type  2   force =     0.00860935    0.01110467   -0.00146763
     atom    6 type  2   force =    -0.00860932    0.01110457   -0.00146784
     atom    7 type  1   force =    -0.00000461   -0.00176110   -0.00142292
     atom    8 type  1   force =     0.00000000   -0.00000000   -0.00000000
     atom    9 type  1   force =     0.00000461    0.00176110    0.00142292
     atom   10 type  3   force =    -0.00000000   -0.00000000    0.00000000
     atom   11 type  2   force =    -0.00000020   -0.00008889    0.01307590
     atom   12 type  2   force =    -0.00000004   -0.00279116   -0.00509451
     atom   13 type  2   force =     0.00000020    0.00008889   -0.01307590
     atom   14 type  2   force =     0.00000004    0.00279116    0.00509451
     atom   15 type  2   force =    -0.00860935   -0.01110467    0.00146763
     atom   16 type  2   force =     0.00860932   -0.01110457    0.00146784
     The Hubbard contrib.    to forces
     atom    1 type  1   force =     0.00000000    0.00000000    0.00000000
     atom    2 type  1   force =     0.00000000    0.00000000    0.00000000
     atom    3 type  1   force =     0.00000000    0.00000000    0.00000000
     atom    4 type  1   force =     0.00000000    0.00000000    0.00000000
     atom    5 type  2   force =     0.00000000    0.00000000    0.00000000
     atom    6 type  2   force =     0.00000000    0.00000000    0.00000000
     atom    7 type  1   force =     0.00000000    0.00000000    0.00000000
     atom    8 type  1   force =     0.00000000    0.00000000    0.00000000
     atom    9 type  1   force =     0.00000000    0.00000000    0.00000000
     atom   10 type  3   force =     0.00000000    0.00000000    0.00000000
     atom   11 type  2   force =     0.00000000    0.00000000    0.00000000
     atom   12 type  2   force =     0.00000000    0.00000000    0.00000000
     atom   13 type  2   force =     0.00000000    0.00000000    0.00000000
     atom   14 type  2   force =     0.00000000    0.00000000    0.00000000
     atom   15 type  2   force =     0.00000000    0.00000000    0.00000000
     atom   16 type  2   force =     0.00000000    0.00000000    0.00000000
     The SCF correction term to forces
     atom    1 type  1   force =    -0.00001551   -0.00000000    0.00000001
     atom    2 type  1   force =     0.00000000    0.00000000    0.00000000
     atom    3 type  1   force =     0.00001551    0.00000000   -0.00000001
     atom    4 type  1   force =     0.00000000   -0.00000000   -0.00000000
     atom    5 type  2   force =    -0.00000039    0.00000048    0.00000126
     atom    6 type  2   force =     0.00000039    0.00000048    0.00000126
     atom    7 type  1   force =     0.00000002    0.00004038    0.00001018
     atom    8 type  1   force =     0.00000000    0.00000000   -0.00000000
     atom    9 type  1   force =    -0.00000002   -0.00004038   -0.00001018
     atom   10 type  3   force =    -0.00000000   -0.00000000   -0.00000000
     atom   11 type  2   force =    -0.00000000   -0.00000057    0.00000086
     atom   12 type  2   force =    -0.00000000   -0.00000005    0.00000069
     atom   13 type  2   force =     0.00000000    0.00000057   -0.00000086
     atom   14 type  2   force =     0.00000000    0.00000005   -0.00000069
     atom   15 type  2   force =     0.00000039   -0.00000048   -0.00000126
     atom   16 type  2   force =    -0.00000039   -0.00000048   -0.00000126

     Total force =     0.001879     Total SCF correction =     0.000063
     Energy error            =      3.8E-05 Ry
     Gradient error          =      7.1E-04 Ry/Bohr

     bfgs converged in  36 scf cycles and  25 bfgs steps
     (criteria: energy <  1.0E-04 Ry, force <  1.0E-03 Ry/Bohr)

     End of BFGS Geometry Optimization

     Final energy             =   -2749.7268567084 Ry

     File ./tutorial.bfgs deleted, as requested
Begin final coordinates

ATOMIC_POSITIONS (angstrom)
Ni           -1.7989356375        3.1573589245        2.5225330000
Ni           -1.8229020250        3.1573589245        5.0450660000
Ni           -1.8468684125        3.1573589245        7.5675990000
Ni           -1.8229020250        3.1573589245       10.0901320000
As           -1.8373568751        5.4126132858        6.2708982140
As           -1.8084472113        5.4126132858       11.3159642140
Ni           -0.0000000000        0.2466162942        0.1326847126
Ni            0.0000000000       -0.0000000000        2.5225330000
Ni            0.0000000000       -0.2466162942        4.9123812874
Mn            0.0000000000       -0.0000000000        7.5675990000
As           -0.0000000182        2.1878663936        6.4062074433
As           -0.0000000182        2.2351896825       11.3834579022
As            0.0000000182        4.1268514554        8.7289905567
As            0.0000000182        4.0795281665       13.8418720978
As            1.8373568751        0.9021045632        8.8642997860
As            1.8084472113        0.9021045632       13.9093657860
End final coordinates

     Writing all to output data dir ./tutorial.save/

     General routines

     Parallel routines

   This run was terminated on:  15: 4: 2  30May2023

   JOB DONE.