     Program PWSCF v.7.2 starts on 30May2023 at 14: 7: 0

     Waiting for input...
     Reading input from standard input
Warning: card &CELL ignored
Warning: card / ignored

     Current dimensions of program PWSCF are:
     Max number of different atomic species (ntypx) = 10
     Max number of k-points (npk) =  40000
     Max angular momentum in pseudopotentials (lmaxx) =  4
     file Mn.pbesol-spn-rrkjus_psl.0.3.1.UPF: wavefunction(s)  3D renormalized
     Message from routine setup:
     using ibrav=0 with symmetry is DISCOURAGED, use correct ibrav instead

     R & G space division:  proc/nbgrp/npool/nimage =      28
     Subspace diagonalization in iterative solution of the eigenvalue problem:
     a serial algorithm will be used

     Using Slab Decomposition

     bravais-lattice index     =            0
     lattice parameter (alat)  =      11.7626  a.u.
     unit-cell volume          =     783.8099 (a.u.)^3
     number of atoms/cell      =            8
     number of atomic types    =            3
     number of electrons       =        83.00
     number of Kohn-Sham states=           50
     kinetic-energy cutoff     =      40.4242  Ry
     charge density cutoff     =     161.6969  Ry
     scf convergence threshold =      1.0E-06
     mixing beta               =       0.7000
     number of iterations used =            8  plain     mixing
     energy convergence thresh.=      1.0E-04
     force convergence thresh. =      1.0E-03
     Exchange-correlation= PBESOL
                           (   1   4  10   8   0   0   0)
     nstep                     =           50

     celldm(1)=  11.762627  celldm(2)=   0.000000  celldm(3)=   0.000000
     celldm(4)=   0.000000  celldm(5)=   0.000000  celldm(6)=   0.000000

     crystal axes: (cart. coord. in units of alat)
               a(1) = (   0.585717   0.000000   0.810516 )
               a(2) = (  -0.292859   0.507246   0.000000 )
               a(3) = (   0.000000   0.000000   1.621031 )

     reciprocal axes: (cart. coord. in units 2 pi/alat)
               b(1) = (  1.707309  0.985715  0.000000 )
               b(2) = (  0.000000  1.971431  0.000000 )
               b(3) = ( -0.853655 -0.492858  0.616891 )

     PseudoPot. # 1 for Ni read from file:
     /home/valmzztt/Intermetallic_alloys/pseudos/Ni.pbesol-spn-rrkjus_psl.1.0.0.UPF
     MD5 check sum: 6fc0a587bf949a08f2faed986b854013
     Pseudo is Ultrasoft + core correction, Zval = 18.0
     Generated using &quot;atomic&quot; code by A. Dal Corso  v.6.3
     Using radial grid of 1195 points,  6 beta functions with:
                l(1) =   0
                l(2) =   0
                l(3) =   1
                l(4) =   1
                l(5) =   2
                l(6) =   2
     Q(r) pseudized with 0 coefficients

     PseudoPot. # 2 for Mn read from file:
     /home/valmzztt/Intermetallic_alloys/pseudos/Mn.pbesol-spn-rrkjus_psl.0.3.1.UPF
     MD5 check sum: 61e28eea34dae291f95a967fe31318f1
     Pseudo is Ultrasoft + core correction, Zval = 15.0
     Generated using &quot;atomic&quot; code by A. Dal Corso  v.6.3
     Using radial grid of 1187 points,  6 beta functions with:
                l(1) =   0
                l(2) =   0
                l(3) =   1
                l(4) =   1
                l(5) =   2
                l(6) =   2
     Q(r) pseudized with 0 coefficients

     PseudoPot. # 3 for As read from file:
     /home/valmzztt/Intermetallic_alloys/pseudos/As.pbesol-n-rrkjus_psl.1.0.0.UPF
     MD5 check sum: 2fb13bbab3d0b4e108be5408f3d6fe7c
     Pseudo is Ultrasoft + core correction, Zval =  5.0
     Generated using &quot;atomic&quot; code by A. Dal Corso  v.6.3
     Using radial grid of 1209 points,  4 beta functions with:
                l(1) =   0
                l(2) =   0
                l(3) =   1
                l(4) =   1
     Q(r) pseudized with 0 coefficients

     atomic species   valence    mass     pseudopotential
        Ni            18.00    58.69340     Ni( 1.00)
        Mn            15.00    54.93804     Mn( 1.00)
        As             5.00    74.92159     As( 1.00)

      4 Sym. Ops., with inversion, found

   Cartesian axes

     site n.     atom                  positions (alat units)
         1           Ni  tau(   1) = (   0.0000000   0.0000000   0.0000000  )
         2           Mn  tau(   2) = (   0.0000000   0.0000000   0.4052578  )
         3           Mn  tau(   3) = (   0.0000000   0.0000000   0.8105156  )
         4           Mn  tau(   4) = (   0.0000000   0.0000000   1.2157734  )
         5           As  tau(   5) = (  -0.0000000   0.3381639   1.0131445  )
         6           As  tau(   6) = (  -0.0000000   0.3381639   1.8236601  )
         7           As  tau(   7) = (   0.2928585   0.1690819   0.6078867  )
         8           As  tau(   8) = (   0.2928585   0.1690819   1.4184023  )

     number of k points=     1  Gaussian smearing, width (Ry)=  0.0147
                       cart. coord. in units 2pi/alat
        k(    1) = (   0.0000000   0.0000000   0.0000000), wk =   2.0000000

     Check: negative core charge=   -0.000080

     Initial potential from superposition of free atoms

     starting charge      82.9975, renormalised to      83.0000
     Starting wfcs are   56 randomized atomic wfcs

     Self-consistent Calculation

     iteration #  1     ecut=    40.42 Ry     beta= 0.70
     Davidson diagonalization with overlap
     ethr =  1.00E-02,  avg # of iterations =  2.0

     total energy              =   -1057.23000446 Ry
     estimated scf accuracy    <       5.08999653 Ry

[...]

     End of self-consistent calculation

          k = 0.0000 0.0000 0.0000 (  3373 PWs)   bands (ev):

   -90.1912 -64.9219 -64.7086 -64.7079 -50.2435 -50.2238 -50.0038 -34.2738
   -33.8197 -33.8177 -33.7838 -33.6146 -33.6104 -33.5324 -33.5255 -33.4811
    -1.0281   1.7124   1.7799   2.6826   6.3808   6.6571   6.6612   9.1640
     9.1871   9.8263  10.0518  10.2491  10.6957  10.7582  11.0482  11.0910
    11.9014  11.9774  12.2576  12.6958  12.7822  13.0039  13.5177  13.5726
    13.5857  13.6379  13.6822  13.8523  14.6154  15.0885  15.3241  15.6510
    15.6587  16.5954

     the Fermi energy is    13.6706 ev

!    total energy              =   -1060.96714356 Ry
     estimated scf accuracy    <       0.00000067 Ry
     smearing contrib. (-TS)   =      -0.03804432 Ry
     internal energy E=F+TS    =   -1060.92909924 Ry

     The total energy is F=E-TS. E is the sum of the following terms:
     one-electron contribution =    -673.07231902 Ry
     hartree contribution      =     378.08513033 Ry
     xc contribution           =    -163.12406857 Ry
     ewald contribution        =    -602.81784198 Ry

     convergence has been achieved in  21 iterations

     Forces acting on atoms (cartesian axes, Ry/au):

     atom    1 type  1   force =     0.00000000    0.00000000    0.00000000
     atom    2 type  2   force =     0.01220600    0.00704714    0.06000890
     atom    3 type  2   force =     0.00000000    0.00000000    0.00000000
     atom    4 type  2   force =    -0.01220600   -0.00704714   -0.06000890
     atom    5 type  3   force =     0.01142524    0.00659637    0.01493086
     atom    6 type  3   force =     0.04538600    0.02620362    0.02250583
     atom    7 type  3   force =    -0.04538600   -0.02620362   -0.02250583
     atom    8 type  3   force =    -0.01142524   -0.00659637   -0.01493086
     The non-local contrib.  to forces
     atom    1 type  1   force =     0.00000000    0.00000000    0.00000000
     atom    2 type  2   force =    -0.01571526   -0.00907321   -0.03292305
     atom    3 type  2   force =     0.00000000    0.00000000    0.00000000
     atom    4 type  2   force =     0.01571526    0.00907321    0.03292305
     atom    5 type  3   force =     0.01447188    0.00835535   -0.01273862
     atom    6 type  3   force =    -0.02855286   -0.01648500   -0.02041752
     atom    7 type  3   force =     0.02855286    0.01648500    0.02041752
     atom    8 type  3   force =    -0.01447188   -0.00835535    0.01273862
     The ionic contribution  to forces
     atom    1 type  1   force =    -0.00000000   -0.00000000    0.00000000
     atom    2 type  2   force =     0.00000000   -0.00000000    2.67225748
     atom    3 type  2   force =    -0.00000000   -0.00000000   -0.00000000
     atom    4 type  2   force =    -0.00000000   -0.00000000   -2.67225748
     atom    5 type  3   force =    -0.74474172   -0.42997700    0.43811825
     atom    6 type  3   force =     0.74474202    0.42997682    0.98868618
     atom    7 type  3   force =    -0.74474202   -0.42997682   -0.98868618
     atom    8 type  3   force =     0.74474172    0.42997700   -0.43811825
     The local contribution  to forces
     atom    1 type  1   force =     0.00000000    0.00000000    0.00000000
     atom    2 type  2   force =     0.02482042    0.01433008   -2.58457647
     atom    3 type  2   force =    -0.00000000   -0.00000000   -0.00000000
     atom    4 type  2   force =    -0.02482042   -0.01433008    2.58457647
     atom    5 type  3   force =     0.74586105    0.43062327   -0.41428767
     atom    6 type  3   force =    -0.67926072   -0.39217114   -0.95220940
     atom    7 type  3   force =     0.67926072    0.39217114    0.95220940
     atom    8 type  3   force =    -0.74586105   -0.43062327    0.41428767
     The core correction contribution to forces
     atom    1 type  1   force =     0.00000000    0.00000000   -0.00000000
     atom    2 type  2   force =     0.00302445    0.00175028    0.00496147
     atom    3 type  2   force =    -0.00000000   -0.00000000   -0.00000000
     atom    4 type  2   force =    -0.00302445   -0.00175028   -0.00496147
     atom    5 type  3   force =    -0.00415210   -0.00239697    0.00416067
     atom    6 type  3   force =     0.00833703    0.00481472    0.00673264
     atom    7 type  3   force =    -0.00833703   -0.00481472   -0.00673264
     atom    8 type  3   force =     0.00415210    0.00239697   -0.00416067
     The Hubbard contrib.    to forces
     atom    1 type  1   force =     0.00000000    0.00000000    0.00000000
     atom    2 type  2   force =     0.00000000    0.00000000    0.00000000
     atom    3 type  2   force =     0.00000000    0.00000000    0.00000000
     atom    4 type  2   force =     0.00000000    0.00000000    0.00000000
     atom    5 type  3   force =     0.00000000    0.00000000    0.00000000
     atom    6 type  3   force =     0.00000000    0.00000000    0.00000000
     atom    7 type  3   force =     0.00000000    0.00000000    0.00000000
     atom    8 type  3   force =     0.00000000    0.00000000    0.00000000
     The SCF correction term to forces
     atom    1 type  1   force =    -0.00000000   -0.00000000    0.00000000
     atom    2 type  2   force =     0.00007461    0.00004308    0.00028947
     atom    3 type  2   force =     0.00000000    0.00000000    0.00000000
     atom    4 type  2   force =    -0.00007461   -0.00004308   -0.00028947
     atom    5 type  3   force =    -0.00001399   -0.00000808   -0.00032177
     atom    6 type  3   force =     0.00011994    0.00006925   -0.00028606
     atom    7 type  3   force =    -0.00011994   -0.00006925    0.00028606
     atom    8 type  3   force =     0.00001399    0.00000808    0.00032177

     Total force =     0.122063     Total SCF correction =     0.000769

     BFGS Geometry Optimization
     Energy error            =      0.0E+00 Ry
     Gradient error          =      6.0E-02 Ry/Bohr

     number of scf cycles    =   1
     number of bfgs steps    =   0

     energy             new  =   -1060.9671435605 Ry

     new trust radius        =       0.0616418395 bohr
     new conv_thr            =       0.0000010000 Ry

ATOMIC_POSITIONS (angstrom)
Ni            0.0000000000        0.0000000000        0.0000000000
Mn            0.0064591385        0.0037291854        2.5542883407
Mn            0.0000000000        0.0000000000        5.0450660000
Mn           -0.0064591385       -0.0037291854        7.5358436593
As            0.0060459584        2.1083966064        6.3142335713
As            0.0240172201        2.1187723192       11.3633080750
As            1.7988848049        1.0385866053        3.7718899250
As            1.8168560666        1.0489623181        8.8209644287

     Writing config-only to output data dir ./tutorial.save/
     NEW-OLD atomic charge density approx. for the potential

[...]

     Total force =     0.180327     Total SCF correction =     0.000401
     Energy error            =      1.8E-02 Ry
     Gradient error          =      1.0E-01 Ry/Bohr

[...]

     energy             old  =   -1060.9671435606 Ry
     energy             new  =   -1060.9853974163 Ry

     CASE: energy            _new < energy            _old

     WARNING: bfgs curvature condition failed, Theta= 0.556
     uphill step: resetting bfgs history

[...]

     WARNING: bfgs curvature condition failed, Theta= 0.602
     uphill step: resetting bfgs history

[...]

     WARNING: bfgs curvature condition failed, Theta= 0.860
     new trust radius        =       0.1525635526 bohr
     new conv_thr            =       0.0000010000 Ry

[...]

     WARNING: bfgs curvature condition failed, Theta= 0.971
     new trust radius        =       0.0331817248 bohr
     new conv_thr            =       0.0000002309 Ry

[...]

     Total force =     0.001970     Total SCF correction =     0.000373
     SCF correction compared to forces is large: reduce conv_thr to get better values
     Energy error            =      2.2E-05 Ry
     Gradient error          =      1.1E-03 Ry/Bohr

     number of scf cycles    =  25
     number of bfgs steps    =  24

     energy             old  =   -1061.1777161950 Ry
     energy             new  =   -1061.1777376983 Ry

     CASE: energy            _new < energy            _old

     new trust radius        =       0.0041650227 bohr
     new conv_thr            =       0.0000000100 Ry

ATOMIC_POSITIONS (angstrom)
Ni            0.0000000000        0.0000000000        0.0000000000
Mn           -0.2997163265       -0.1730413018        2.8077417174
Mn            0.0000000000        0.0000000000        5.0450660000
Mn            0.2997163265        0.1730413018        7.2823902826
As            0.1504956539        2.1917946770        6.1804892990
As            0.2366007474        2.2415074759       11.8367466147
As            1.5863012776        0.9158514486        3.2984513853
As            1.6724063711        0.9655642475        8.9547087010

     Writing config-only to output data dir ./tutorial.save/
     NEW-OLD atomic charge density approx. for the potential

     Check: negative core charge=   -0.000075

     Self-consistent Calculation

[...]

     Threshold (ethr) on eigenvalues was too large:
     Diagonalizing with lowered threshold

     Davidson diagonalization with overlap
     ethr =  3.95E-08,  avg # of iterations =  4.0

[...]

     total energy              =   -1061.17774360 Ry
     estimated scf accuracy    <       0.00000001 Ry

     iteration # 10     ecut=    40.42 Ry     beta= 0.70
     Davidson diagonalization with overlap
     ethr =  1.46E-11,  avg # of iterations =  5.0

     End of self-consistent calculation

          k = 0.0000 0.0000 0.0000 (  3373 PWs)   bands (ev):

   -89.1902 -65.2317 -65.1793 -65.1211 -49.6670 -48.9593 -48.8840 -35.0012
   -34.4907 -34.3002 -33.9785 -33.9741 -33.9540 -33.9135 -33.7628 -33.7282
    -1.6800   0.6841   1.6961   3.5508   6.5701   6.8344   7.3384   8.8542
     9.3739   9.4973   9.8196   9.8515   9.9166  10.5480  10.7844  11.4356
    11.6855  12.1157  12.1666  12.2790  12.3577  12.8830  12.9195  13.1461
    13.2011  13.9092  14.0293  14.0512  14.8733  15.1367  15.2477  15.2862
    15.3796  16.3665

     the Fermi energy is    13.8464 ev

!    total energy              =   -1061.17774360 Ry
     estimated scf accuracy    <          3.0E-10 Ry
     smearing contrib. (-TS)   =      -0.01401243 Ry
     internal energy E=F+TS    =   -1061.16373117 Ry

     The total energy is F=E-TS. E is the sum of the following terms:
     one-electron contribution =    -685.35046253 Ry
     hartree contribution      =     384.02432723 Ry
     xc contribution           =    -163.41001923 Ry
     ewald contribution        =    -596.42757664 Ry

     convergence has been achieved in  10 iterations

     Forces acting on atoms (cartesian axes, Ry/au):

     atom    1 type  1   force =     0.00000000    0.00000000    0.00000000
     atom    2 type  2   force =    -0.00013878   -0.00008012    0.00041302
     atom    3 type  2   force =     0.00000000    0.00000000    0.00000000
     atom    4 type  2   force =     0.00013878    0.00008012   -0.00041302
     atom    5 type  3   force =    -0.00019273   -0.00011127    0.00006795
     atom    6 type  3   force =    -0.00036800   -0.00021247    0.00000076
     atom    7 type  3   force =     0.00036800    0.00021247   -0.00000076
     atom    8 type  3   force =     0.00019273    0.00011127   -0.00006795
     The non-local contrib.  to forces
     atom    1 type  1   force =     0.00000000    0.00000000    0.00000000
     atom    2 type  2   force =    -0.06348135   -0.03665098    0.19566532
     atom    3 type  2   force =     0.00000000    0.00000000    0.00000000
     atom    4 type  2   force =     0.06348135    0.03665098   -0.19566532
     atom    5 type  3   force =    -0.01291808   -0.00745826    0.02006553
     atom    6 type  3   force =    -0.02483147   -0.01433645   -0.08615339
     atom    7 type  3   force =     0.02483147    0.01433645    0.08615339
     atom    8 type  3   force =     0.01291808    0.00745826   -0.02006553
     The ionic contribution  to forces
     atom    1 type  1   force =    -0.00000000   -0.00000000    0.00000000
     atom    2 type  2   force =     3.71989108    2.14768003   -7.85271471
     atom    3 type  2   force =     0.00000000   -0.00000000    0.00000000
     atom    4 type  2   force =    -3.71989108   -2.14768003    7.85271471
     atom    5 type  3   force =    -0.87884726   -0.50740288   -1.73727398
     atom    6 type  3   force =    -2.24856317   -1.29820867    0.35050055
     atom    7 type  3   force =     2.24856317    1.29820867   -0.35050055
     atom    8 type  3   force =     0.87884726    0.50740288    1.73727398
     The local contribution  to forces
     atom    1 type  1   force =     0.00000000   -0.00000000   -0.00000000
     atom    2 type  2   force =    -3.66007225   -2.11314370    7.67646058
     atom    3 type  2   force =    -0.00000000   -0.00000000    0.00000000
     atom    4 type  2   force =     3.66007225    2.11314370   -7.67646058
     atom    5 type  3   force =     0.88340109    0.51003205    1.70251703
     atom    6 type  3   force =     2.23643771    1.29120801   -0.30546041
     atom    7 type  3   force =    -2.23643771   -1.29120801    0.30546041
     atom    8 type  3   force =    -0.88340109   -0.51003206   -1.70251703
     The core correction contribution to forces
     atom    1 type  1   force =     0.00000000    0.00000000   -0.00000000
     atom    2 type  2   force =     0.00349288    0.00200193   -0.01896671
     atom    3 type  2   force =     0.00000000    0.00000000    0.00000000
     atom    4 type  2   force =    -0.00349288   -0.00200193    0.01896671
     atom    5 type  3   force =     0.00816888    0.00471451    0.01475785
     atom    6 type  3   force =     0.03658943    0.02112577    0.04110930
     atom    7 type  3   force =    -0.03658943   -0.02112577   -0.04110930
     atom    8 type  3   force =    -0.00816888   -0.00471451   -0.01475785
     The Hubbard contrib.    to forces
     atom    1 type  1   force =     0.00000000    0.00000000    0.00000000
     atom    2 type  2   force =     0.00000000    0.00000000    0.00000000
     atom    3 type  2   force =     0.00000000    0.00000000    0.00000000
     atom    4 type  2   force =     0.00000000    0.00000000    0.00000000
     atom    5 type  3   force =     0.00000000    0.00000000    0.00000000
     atom    6 type  3   force =     0.00000000    0.00000000    0.00000000
     atom    7 type  3   force =     0.00000000    0.00000000    0.00000000
     atom    8 type  3   force =     0.00000000    0.00000000    0.00000000
     The SCF correction term to forces
     atom    1 type  1   force =     0.00000000    0.00000000    0.00000000
     atom    2 type  2   force =     0.00003726    0.00002151   -0.00003146
     atom    3 type  2   force =    -0.00000000   -0.00000000    0.00000000
     atom    4 type  2   force =    -0.00003726   -0.00002151    0.00003146
     atom    5 type  3   force =     0.00000342    0.00000197    0.00000154
     atom    6 type  3   force =    -0.00000087   -0.00000050    0.00000471
     atom    7 type  3   force =     0.00000087    0.00000050   -0.00000471
     atom    8 type  3   force =    -0.00000342   -0.00000197   -0.00000154

     Total force =     0.000928     Total SCF correction =     0.000076
     Energy error            =      5.9E-06 Ry
     Gradient error          =      4.1E-04 Ry/Bohr

     bfgs converged in  26 scf cycles and  25 bfgs steps
     (criteria: energy <  1.0E-04 Ry, force <  1.0E-03 Ry/Bohr)

     End of BFGS Geometry Optimization

     Final energy             =   -1061.1777435986 Ry

     File ./tutorial.bfgs deleted, as requested
Begin final coordinates

ATOMIC_POSITIONS (angstrom)
Ni            0.0000000000        0.0000000000        0.0000000000
Mn           -0.2997163265       -0.1730413018        2.8077417174
Mn            0.0000000000        0.0000000000        5.0450660000
Mn            0.2997163265        0.1730413018        7.2823902826
As            0.1504956539        2.1917946770        6.1804892990
As            0.2366007474        2.2415074759       11.8367466147
As            1.5863012776        0.9158514486        3.2984513853
As            1.6724063711        0.9655642475        8.9547087010
End final coordinates

     Writing all to output data dir ./tutorial.save/

     General routines

     Parallel routines

   This run was terminated on:  14: 7:20  30May2023

   JOB DONE.