     Program PWSCF v.7.2 starts on 30May2023 at 15: 7: 4

     Waiting for input...
     Reading input from standard input
Warning: card &CELL ignored
Warning: card / ignored

     Current dimensions of program PWSCF are:
     Max number of different atomic species (ntypx) = 10
     Max number of k-points (npk) =  40000
     Max angular momentum in pseudopotentials (lmaxx) =  4
     file Mn.pbesol-spn-rrkjus_psl.0.3.1.UPF: wavefunction(s)  3D renormalized
     Message from routine setup:
     using ibrav=0 with symmetry is DISCOURAGED, use correct ibrav instead

     R & G space division:  proc/nbgrp/npool/nimage =      28
     Subspace diagonalization in iterative solution of the eigenvalue problem:
     one sub-group per band group will be used

     Using Slab Decomposition

     bravais-lattice index     =            0
     lattice parameter (alat)  =      23.5253  a.u.
     unit-cell volume          =    3135.2395 (a.u.)^3
     number of atoms/cell      =           32
     number of atomic types    =            3
     number of electrons       =       365.00
     number of Kohn-Sham states=          220
     kinetic-energy cutoff     =      40.4242  Ry
     charge density cutoff     =     161.6969  Ry
     scf convergence threshold =      1.0E-06
     mixing beta               =       0.7000
     number of iterations used =            8  plain     mixing
     energy convergence thresh.=      1.0E-04
     force convergence thresh. =      1.0E-03
     Exchange-correlation= PBESOL
                           (   1   4  10   8   0   0   0)
     nstep                     =           50

     celldm(1)=  23.525255  celldm(2)=   0.000000  celldm(3)=   0.000000
     celldm(4)=   0.000000  celldm(5)=   0.000000  celldm(6)=   0.000000

     crystal axes: (cart. coord. in units of alat)
               a(1) = (   0.292859   0.507246   0.810516 )
               a(2) = (  -0.292859   0.507246   0.000000 )
               a(3) = (   0.000000   0.000000   0.810516 )

     reciprocal axes: (cart. coord. in units 2 pi/alat)
               b(1) = (  1.707309  0.985715  0.000000 )
               b(2) = ( -1.707309  0.985715  0.000000 )
               b(3) = ( -1.707309 -0.985715  1.233783 )

     PseudoPot. # 1 for Ni read from file:
     /home/valmzztt/Intermetallic_alloys/pseudos/Ni.pbesol-spn-rrkjus_psl.1.0.0.UPF
     MD5 check sum: 6fc0a587bf949a08f2faed986b854013
     Pseudo is Ultrasoft + core correction, Zval = 18.0
     Generated using &quot;atomic&quot; code by A. Dal Corso  v.6.3
     Using radial grid of 1195 points,  6 beta functions with:
                l(1) =   0
                l(2) =   0
                l(3) =   1
                l(4) =   1
                l(5) =   2
                l(6) =   2
     Q(r) pseudized with 0 coefficients

     PseudoPot. # 2 for As read from file:
     /home/valmzztt/Intermetallic_alloys/pseudos/As.pbesol-n-rrkjus_psl.1.0.0.UPF
     MD5 check sum: 2fb13bbab3d0b4e108be5408f3d6fe7c
     Pseudo is Ultrasoft + core correction, Zval =  5.0
     Generated using &quot;atomic&quot; code by A. Dal Corso  v.6.3
     Using radial grid of 1209 points,  4 beta functions with:
                l(1) =   0
                l(2) =   0
                l(3) =   1
                l(4) =   1
     Q(r) pseudized with 0 coefficients

     PseudoPot. # 3 for Mn read from file:
     /home/valmzztt/Intermetallic_alloys/pseudos/Mn.pbesol-spn-rrkjus_psl.0.3.1.UPF
     MD5 check sum: 61e28eea34dae291f95a967fe31318f1
     Pseudo is Ultrasoft + core correction, Zval = 15.0
     Generated using &quot;atomic&quot; code by A. Dal Corso  v.6.3
     Using radial grid of 1187 points,  6 beta functions with:
                l(1) =   0
                l(2) =   0
                l(3) =   1
                l(4) =   1
                l(5) =   2
                l(6) =   2
     Q(r) pseudized with 0 coefficients

     atomic species   valence    mass     pseudopotential
        Ni            18.00    58.69340     Ni( 1.00)
        As             5.00    74.92159     As( 1.00)
        Mn            15.00    54.93804     Mn( 1.00)

     12 Sym. Ops., with inversion, found

   Cartesian axes

     site n.     atom                  positions (alat units)
         1           Ni  tau(   1) = (  -0.1464293   0.2536229   0.0000000  )
         2           Ni  tau(   2) = (  -0.1464293   0.2536229   0.2026289  )
         3           Ni  tau(   3) = (  -0.1464293   0.2536229   0.4052578  )
         4           Ni  tau(   4) = (  -0.1464293   0.2536229   0.6078867  )
         5           As  tau(   5) = (  -0.1464293   0.4227049   0.5065723  )
         6           As  tau(   6) = (  -0.1464293   0.4227049   0.9118301  )
         7           As  tau(   7) = (  -0.1464293   0.5917868   0.3039434  )
         8           As  tau(   8) = (  -0.1464293   0.5917868   0.7092012  )
         9           Ni  tau(   9) = (   0.0000000   0.0000000   0.0000000  )
        10           Ni  tau(  10) = (   0.0000000   0.0000000   0.2026289  )
        11           Mn  tau(  11) = (   0.0000000   0.0000000   0.4052578  )
        12           Ni  tau(  12) = (   0.0000000   0.0000000   0.6078867  )
        13           As  tau(  13) = (  -0.0000000   0.1690819   0.5065723  )
        14           As  tau(  14) = (  -0.0000000   0.1690819   0.9118301  )
        15           As  tau(  15) = (   0.0000000   0.3381639   0.3039434  )
        16           As  tau(  16) = (   0.0000000   0.3381639   0.7092012  )
        17           Ni  tau(  17) = (   0.0000000   0.5072458   0.4052578  )
        18           Ni  tau(  18) = (   0.0000000   0.5072458   0.6078867  )
        19           Ni  tau(  19) = (   0.0000000   0.5072458   0.8105156  )
        20           Ni  tau(  20) = (   0.0000000   0.5072458   1.0131445  )
        21           As  tau(  21) = (  -0.0000000   0.6763278   0.9118301  )
        22           As  tau(  22) = (  -0.0000000   0.6763278   1.3170879  )
        23           As  tau(  23) = (   0.0000000   0.8454097   0.7092012  )
        24           As  tau(  24) = (   0.0000000   0.8454097   1.1144590  )
        25           Ni  tau(  25) = (   0.1464293   0.2536229   0.4052578  )
        26           Ni  tau(  26) = (   0.1464293   0.2536229   0.6078867  )
        27           Ni  tau(  27) = (   0.1464293   0.2536229   0.8105156  )
        28           Ni  tau(  28) = (   0.1464293   0.2536229   1.0131445  )
        29           As  tau(  29) = (   0.1464293   0.4227049   0.9118301  )
        30           As  tau(  30) = (   0.1464293   0.4227049   1.3170879  )
        31           As  tau(  31) = (   0.1464293   0.5917868   0.7092012  )
        32           As  tau(  32) = (   0.1464293   0.5917868   1.1144590  )

     number of k points=     1  Gaussian smearing, width (Ry)=  0.0147
                       cart. coord. in units 2pi/alat
        k(    1) = (   0.0000000   0.0000000   0.0000000), wk =   2.0000000

     Check: negative core charge=   -0.000017

     Initial potential from superposition of free atoms

     starting charge     364.9925, renormalised to     365.0000
     Starting wfcs are  224 randomized atomic wfcs

     Self-consistent Calculation

     iteration #  1     ecut=    40.42 Ry     beta= 0.70
     Davidson diagonalization with overlap
     ethr =  1.00E-02,  avg # of iterations =  6.0

     total energy              =   -5618.90640639 Ry
     estimated scf accuracy    <       7.52685714 Ry

[...]

     End of self-consistent calculation

          k = 0.0000 0.0000 0.0000 ( 13539 PWs)   bands (ev):

   -90.9509 -90.9509 -90.9509 -90.9279 -90.9270 -90.8705 -90.8705 -90.8704
   -90.8694 -90.8694 -90.8694 -90.6568 -90.6568 -90.6568 -90.6163 -65.5199
   -50.9682 -50.9611 -50.9610 -50.9376 -50.9264 -50.9263 -50.9162 -50.9161
   -50.9134 -50.8933 -50.8850 -50.8849 -50.8766 -50.8705 -50.8704 -50.8688
   -50.8688 -50.8659 -50.8636 -50.8394 -50.8360 -50.8359 -50.8359 -50.8359
   -50.8305 -50.8148 -50.8148 -50.8056 -50.7968 -50.7967 -50.7902 -50.7683
   -50.7683 -50.7119 -50.6859 -50.6859 -50.6166 -50.6165 -50.6079 -50.5847
   -50.5846 -50.5486 -50.5456 -50.5455 -50.4963 -34.7381 -34.2919 -34.2919
    -1.4735  -0.2140  -0.1576   0.8788   0.9569   0.9569   1.3249   1.3805
     1.3840   1.3840   1.4439   1.4439   1.5670   1.5670   1.5958   2.2442
     5.9509   5.9509   5.9754   6.0047   6.0052   6.0052   6.0093   6.0639
     6.0639   6.2485   8.4456   8.4456   8.6869   8.6985   8.6985   8.7034
     8.7034   8.8018   8.8054   8.8225   8.8225   9.0272   9.0273   9.0426
     9.0690   9.0835   9.1271   9.1272   9.1487   9.1487   9.1849   9.1849
     9.2670   9.2676   9.2693   9.2694   9.3270   9.3270   9.3315   9.4459
     9.4813   9.4814   9.5187   9.6473   9.6474   9.6740   9.8179   9.8427
     9.8427  10.0467  10.0468  10.4312  10.4314  10.4521  10.4522  10.5266
    10.5414  10.5415  10.5566  10.5648  10.5649  10.5834  10.5835  10.6544
    10.6545  10.6552  10.6786  10.6969  10.6970  10.7110  10.7123  10.7124
    10.7153  10.7938  10.7939  10.8818  10.8818  10.8844  10.8910  10.9822
    10.9822  11.0942  11.1933  11.1933  11.2026  11.2639  11.2639  11.2684
    11.2686  11.2936  11.4952  11.4953  11.7834  12.0987  12.1610  12.2340
    12.3773  12.3775  12.4421  12.4421  12.8988  12.9457  12.9457  12.9584
    12.9584  13.0523  13.0524  13.3281  13.3281  14.0326  14.0327  14.1780
    14.2117  14.2260  14.2261  14.4861  14.4862  14.5166  14.7308  14.7308
    14.9821  14.9821  15.4926  15.6607  15.6607  16.1559  16.2035  16.4575
    16.4575  17.1704  17.2107  17.2107  17.7525  17.7673  17.7673  17.8455
    17.8455  18.0150  18.0291  18.0292

     the Fermi energy is    12.9169 ev

!    total energy              =   -5624.18775527 Ry
     estimated scf accuracy    <       0.00000059 Ry
     smearing contrib. (-TS)   =      -0.05116161 Ry
     internal energy E=F+TS    =   -5624.13659367 Ry

     The total energy is F=E-TS. E is the sum of the following terms:
     one-electron contribution =   -4207.66013545 Ry
     hartree contribution      =    2281.15260137 Ry
     xc contribution           =    -720.93845634 Ry
     ewald contribution        =   -2976.69060324 Ry

     convergence has been achieved in  24 iterations

     Forces acting on atoms (cartesian axes, Ry/au):

     atom    1 type  1   force =     0.00000000    0.00000000    0.00000000
     atom    2 type  1   force =     0.00149150    0.00086112    0.00355591
     atom    3 type  1   force =    -0.00000000    0.00000000    0.00000000
     atom    4 type  1   force =    -0.00149150   -0.00086112   -0.00355591
     atom    5 type  2   force =    -0.01132836    0.00654043   -0.02494692
     atom    6 type  2   force =    -0.00459991    0.00265576   -0.00319558
     atom    7 type  2   force =    -0.01132836   -0.00654043    0.02494692
     atom    8 type  2   force =    -0.00459991   -0.00265576    0.00319558
     atom    9 type  1   force =     0.00000000    0.00000000    0.00000000
     atom   10 type  1   force =     0.00000000    0.00000000    0.00362074
     atom   11 type  3   force =     0.00000000    0.00000000    0.00000000
     atom   12 type  1   force =     0.00000000    0.00000000   -0.00362074
[...]
     atom   13 type  2   force =     0.00000000   -0.00304785    0.01258477
     atom   14 type  2   force =    -0.00000000    0.01930334    0.00368382
     atom   15 type  2   force =    -0.00000000   -0.00000000   -0.00433816
     atom   16 type  2   force =     0.00000000    0.00000000   -0.00238648
     atom   17 type  1   force =    -0.00000000   -0.00000000    0.00000000
     atom   18 type  1   force =     0.00000000   -0.01434391    0.06129513
     atom   19 type  1   force =    -0.00000000    0.00000000    0.00000000
     atom   20 type  1   force =     0.00000000    0.01434391   -0.06129513
     atom   21 type  2   force =     0.00000000    0.00000000    0.00238648
     atom   22 type  2   force =     0.00000000    0.00000000    0.00433816
     atom   23 type  2   force =     0.00000000   -0.01930334   -0.00368382
     atom   24 type  2   force =    -0.00000000    0.00304785   -0.01258477
     atom   25 type  1   force =     0.00000000    0.00000000   -0.00000000
     atom   26 type  1   force =    -0.01242219    0.00717195    0.06129513
     atom   27 type  1   force =     0.00000000   -0.00000000    0.00000000
     atom   28 type  1   force =     0.01242219   -0.00717195   -0.06129513
     atom   29 type  2   force =    -0.01671719   -0.00965167    0.00368382
     atom   30 type  2   force =     0.00263952    0.00152393    0.01258477
     atom   31 type  2   force =    -0.01671719    0.00965167   -0.00368382
     atom   32 type  2   force =     0.00263952   -0.00152393   -0.01258477
     The ionic contribution  to forces
     atom    1 type  1   force =    -0.00000000    0.00000000    0.00000000
     atom    2 type  1   force =    -0.71109023   -0.41054813   -1.41092966
     atom    3 type  1   force =    -0.00000000    0.00000000    0.00000000
     atom    4 type  1   force =     0.71109023    0.41054813    1.41092966
     atom    5 type  2   force =    -0.49190252    0.28400005    0.59588463
     atom    6 type  2   force =     0.03253876   -0.01878626    0.54491672
     atom    7 type  2   force =    -0.49190286   -0.28400004   -0.59588464
     atom    8 type  2   force =     0.03253842    0.01878625   -0.54491671
     atom    9 type  1   force =    -0.00000000   -0.00000000    0.00000000
     atom   10 type  1   force =    -0.00000001    0.00000000    2.05045444
     atom   11 type  3   force =     0.00000000   -0.00000000    0.00000000
     atom   12 type  1   force =     0.00000001   -0.00000000   -2.05045444
     atom   13 type  2   force =     0.00000018   -0.56800039    0.59588464
     atom   14 type  2   force =     0.00000016    0.03757223    0.54491671
     atom   15 type  2   force =    -0.00000017    0.00000010   -0.25467187
     atom   16 type  2   force =    -0.00000017    0.00000010   -0.53623486
     atom   17 type  1   force =    -0.00000000    0.00000000   -0.00000000
     atom   18 type  1   force =     0.00000001   -0.82109627    1.41092966
     atom   19 type  1   force =     0.00000000    0.00000000   -0.00000000
     atom   20 type  1   force =    -0.00000001    0.82109627   -1.41092966
     atom   21 type  2   force =     0.00000017   -0.00000010    0.53623486
     atom   22 type  2   force =     0.00000017   -0.00000010    0.25467187
     atom   23 type  2   force =    -0.00000016   -0.03757223   -0.54491671
     atom   24 type  2   force =    -0.00000018    0.56800039   -0.59588464
     atom   25 type  1   force =     0.00000000    0.00000000    0.00000000
     atom   26 type  1   force =    -0.71109024    0.41054814    1.41092967
     atom   27 type  1   force =     0.00000000    0.00000000    0.00000000
     atom   28 type  1   force =     0.71109024   -0.41054814   -1.41092967
     atom   29 type  2   force =    -0.03253842   -0.01878626    0.54491671
     atom   30 type  2   force =     0.49190286    0.28400004    0.59588464
     atom   31 type  2   force =    -0.03253876    0.01878626   -0.54491672
     atom   32 type  2   force =     0.49190252   -0.28400005   -0.59588463
     The local contribution  to forces
     atom    1 type  1   force =     0.00000000    0.00000002   -0.00000000
     atom    2 type  1   force =     0.72353592    0.41773367    1.47085167
     atom    3 type  1   force =     0.00000000    0.00000002   -0.00000000
     atom    4 type  1   force =    -0.72353592   -0.41773364   -1.47085167
     atom    5 type  2   force =     0.49953106   -0.28840439   -0.59654287
     atom    6 type  2   force =    -0.04628399    0.02672207   -0.54286016
     atom    7 type  2   force =     0.49953144    0.28840439    0.59654289
     atom    8 type  2   force =    -0.04628361   -0.02672207    0.54286015
     atom    9 type  1   force =    -0.00000000    0.00000000    0.00000000
     atom   10 type  1   force =    -0.00000000    0.00000000   -1.93523165
     atom   11 type  3   force =    -0.00000000    0.00000000   -0.00000000
     atom   12 type  1   force =     0.00000000    0.00000000    1.93523165
     atom   13 type  2   force =    -0.00000019    0.57680911   -0.59654289
     atom   14 type  2   force =    -0.00000018   -0.05344381   -0.54286015
     atom   15 type  2   force =     0.00000019   -0.00000011    0.25752201
     atom   16 type  2   force =     0.00000019   -0.00000011    0.53301540
     atom   17 type  1   force =     0.00000000    0.00000003    0.00000000
     atom   18 type  1   force =     0.00000000    0.83546734   -1.47085167
     atom   19 type  1   force =    -0.00000000    0.00000003    0.00000000
     atom   20 type  1   force =     0.00000000   -0.83546728    1.47085167
     atom   21 type  2   force =    -0.00000019    0.00000011   -0.53301540
     atom   22 type  2   force =    -0.00000019    0.00000011   -0.25752201
     atom   23 type  2   force =     0.00000018    0.05344381    0.54286015
     atom   24 type  2   force =     0.00000019   -0.57680911    0.59654288
     atom   25 type  1   force =    -0.00000000    0.00000002   -0.00000000
     atom   26 type  1   force =     0.72353592   -0.41773364   -1.47085167
     atom   27 type  1   force =    -0.00000000    0.00000002   -0.00000000
     atom   28 type  1   force =    -0.72353592    0.41773367    1.47085167
     atom   29 type  2   force =     0.04628361    0.02672207   -0.54286015
     atom   30 type  2   force =    -0.49953144   -0.28840439   -0.59654288
     atom   31 type  2   force =     0.04628399   -0.02672207    0.54286016
     atom   32 type  2   force =    -0.49953106    0.28840439    0.59654287
     The core correction contribution to forces
     atom    1 type  1   force =    -0.00000000    0.00000000   -0.00000000
     atom    2 type  1   force =    -0.00000888    0.00000081    0.00110209
     atom    3 type  1   force =     0.00000000    0.00000000    0.00000000
     atom    4 type  1   force =     0.00000888   -0.00000081   -0.00110209
     atom    5 type  2   force =    -0.00498423    0.00287804   -0.01209859
     atom    6 type  2   force =    -0.00317724    0.00183437   -0.00542124
     atom    7 type  2   force =    -0.00498310   -0.00287735    0.01209968
     atom    8 type  2   force =    -0.00317639   -0.00183402    0.00542093
     atom    9 type  1   force =     0.00000000    0.00000000    0.00000000
     atom   10 type  1   force =     0.00000169    0.00000440    0.00098190
     atom   11 type  3   force =     0.00000000    0.00000000   -0.00000000
     atom   12 type  1   force =    -0.00000169   -0.00000440   -0.00098190
     atom   13 type  2   force =     0.00000013   -0.00575439   -0.01209854
     atom   14 type  2   force =    -0.00000015   -0.00366782   -0.00542133
     atom   15 type  2   force =     0.00000110    0.00000021    0.00126725
     atom   16 type  2   force =     0.00000038   -0.00000019    0.00540696
     atom   17 type  1   force =    -0.00000000    0.00000000   -0.00000000
     atom   18 type  1   force =    -0.00000305   -0.00002343   -0.00110073
     atom   19 type  1   force =    -0.00000000    0.00000000    0.00000000
     atom   20 type  1   force =     0.00000305    0.00002343    0.00110073
     atom   21 type  2   force =    -0.00000038    0.00000019   -0.00540696
     atom   22 type  2   force =    -0.00000110   -0.00000021   -0.00126725
     atom   23 type  2   force =     0.00000015    0.00366782    0.00542133
     atom   24 type  2   force =    -0.00000013    0.00575439    0.01209854
     atom   25 type  1   force =    -0.00000000    0.00000000    0.00000000
     atom   26 type  1   force =    -0.00001708    0.00000148   -0.00110025
     atom   27 type  1   force =     0.00000000    0.00000000   -0.00000000
     atom   28 type  1   force =     0.00001708   -0.00000148    0.00110025
     atom   29 type  2   force =     0.00317639    0.00183402   -0.00542093
     atom   30 type  2   force =     0.00498310    0.00287735   -0.01209968
     atom   31 type  2   force =     0.00317724   -0.00183437    0.00542124
     atom   32 type  2   force =     0.00498423   -0.00287804    0.01209859
     The Hubbard contrib.    to forces
     atom    1 type  1   force =     0.00000000    0.00000000    0.00000000
     atom    2 type  1   force =     0.00000000    0.00000000    0.00000000
     atom    3 type  1   force =     0.00000000    0.00000000    0.00000000
     atom    4 type  1   force =     0.00000000    0.00000000    0.00000000
     atom    5 type  2   force =     0.00000000    0.00000000    0.00000000
     atom    6 type  2   force =     0.00000000    0.00000000    0.00000000
     atom    7 type  2   force =     0.00000000    0.00000000    0.00000000
     atom    8 type  2   force =     0.00000000    0.00000000    0.00000000
     atom    9 type  1   force =     0.00000000    0.00000000    0.00000000
     atom   10 type  1   force =     0.00000000    0.00000000    0.00000000
     atom   11 type  3   force =     0.00000000    0.00000000    0.00000000
     atom   12 type  1   force =     0.00000000    0.00000000    0.00000000
     atom   13 type  2   force =     0.00000000    0.00000000    0.00000000
     atom   14 type  2   force =     0.00000000    0.00000000    0.00000000
     atom   15 type  2   force =     0.00000000    0.00000000    0.00000000
     atom   16 type  2   force =     0.00000000    0.00000000    0.00000000
     atom   17 type  1   force =     0.00000000    0.00000000    0.00000000
     atom   18 type  1   force =     0.00000000    0.00000000    0.00000000
     atom   19 type  1   force =     0.00000000    0.00000000    0.00000000
     atom   20 type  1   force =     0.00000000    0.00000000    0.00000000
     atom   21 type  2   force =     0.00000000    0.00000000    0.00000000
     atom   22 type  2   force =     0.00000000    0.00000000    0.00000000
     atom   23 type  2   force =     0.00000000    0.00000000    0.00000000
     atom   24 type  2   force =     0.00000000    0.00000000    0.00000000
     atom   25 type  1   force =     0.00000000    0.00000000    0.00000000
     atom   26 type  1   force =     0.00000000    0.00000000    0.00000000
     atom   27 type  1   force =     0.00000000    0.00000000    0.00000000
     atom   28 type  1   force =     0.00000000    0.00000000    0.00000000
     atom   29 type  2   force =     0.00000000    0.00000000    0.00000000
     atom   30 type  2   force =     0.00000000    0.00000000    0.00000000
     atom   31 type  2   force =     0.00000000    0.00000000    0.00000000
     atom   32 type  2   force =     0.00000000    0.00000000    0.00000000
     The SCF correction term to forces
     atom    1 type  1   force =    -0.00000000    0.00000000   -0.00000000
     atom    2 type  1   force =    -0.00001355   -0.00000780    0.00004829
     atom    3 type  1   force =     0.00000000   -0.00000000    0.00000000
     atom    4 type  1   force =     0.00001355    0.00000780   -0.00004829
     atom    5 type  2   force =    -0.00000071    0.00000041   -0.00000849
     atom    6 type  2   force =     0.00001018   -0.00000588    0.00000965
     atom    7 type  2   force =    -0.00000071   -0.00000041    0.00000849
     atom    8 type  2   force =     0.00001018    0.00000588   -0.00000965
     atom    9 type  1   force =    -0.00000000   -0.00000000    0.00000000
     atom   10 type  1   force =    -0.00000000   -0.00000000    0.00012159
     atom   11 type  3   force =     0.00000000   -0.00000000    0.00000000
     atom   12 type  1   force =     0.00000000    0.00000000   -0.00012159
     atom   13 type  2   force =    -0.00000000   -0.00000082   -0.00000849
     atom   14 type  2   force =     0.00000000    0.00001176    0.00000965
     atom   15 type  2   force =    -0.00000000   -0.00000000    0.00001708
     atom   16 type  2   force =     0.00000000    0.00000000   -0.00000563
     atom   17 type  1   force =     0.00000000   -0.00000000    0.00000000
     atom   18 type  1   force =     0.00000002   -0.00001563   -0.00004830
     atom   19 type  1   force =     0.00000000    0.00000000    0.00000000
     atom   20 type  1   force =    -0.00000002    0.00001563    0.00004830
     atom   21 type  2   force =    -0.00000000   -0.00000000    0.00000563
     atom   22 type  2   force =     0.00000000    0.00000000   -0.00001708
     atom   23 type  2   force =    -0.00000000   -0.00001176   -0.00000965
     atom   24 type  2   force =     0.00000000    0.00000082    0.00000849
     atom   25 type  1   force =    -0.00000000   -0.00000000    0.00000000
     atom   26 type  1   force =    -0.00001356    0.00000783   -0.00004829
     atom   27 type  1   force =     0.00000000    0.00000000   -0.00000000
     atom   28 type  1   force =     0.00001356   -0.00000783    0.00004829
     atom   29 type  2   force =    -0.00001018   -0.00000588    0.00000965
     atom   30 type  2   force =     0.00000071    0.00000041   -0.00000849
     atom   31 type  2   force =    -0.00001018    0.00000588   -0.00000965
     atom   32 type  2   force =     0.00000071   -0.00000041    0.00000849

     Total force =     0.001271     Total SCF correction =     0.000218
     SCF correction compared to forces is large: reduce conv_thr to get better values
     Energy error            =      2.5E-05 Ry
     Gradient error          =      3.3E-04 Ry/Bohr

     bfgs converged in  14 scf cycles and  13 bfgs steps
     (criteria: energy <  1.0E-04 Ry, force <  1.0E-03 Ry/Bohr)

     End of BFGS Geometry Optimization

     Final energy             =   -5624.2223234769 Ry

     File ./tutorial.bfgs deleted, as requested
Begin final coordinates

ATOMIC_POSITIONS (angstrom)
Ni           -1.8229020250        3.1573589245        0.0000000000
Ni           -1.8230295782        3.1572852816        2.5498554388
Ni           -1.8229020250        3.1573589245        5.0450660000
Ni           -1.8227744718        3.1574325674        7.5402765612
As           -1.8551333409        5.2808736331        6.1639648738
As           -1.8291225266        5.2658562824       11.2983004986
As           -1.8551333045        7.3485620650        3.9261671262
As           -1.8291224902        7.3635794157        8.8819635014
Ni            0.0000000000       -0.0000000000       -0.0000000000
Ni            0.0000000000        0.0000000000        2.5349941825
Mn           -0.0000000000        0.0000000000        5.0450660000
Ni           -0.0000000000       -0.0000000000        7.5551378175
As           -0.0000000182        2.0676884634        6.1639648738
As           -0.0000000182        2.0977231647       11.2983004986
As            0.0000000182        4.2098118888        3.7834672060
As            0.0000000182        4.2098118888        8.8748493365
Ni            0.0000000000        6.3147178490        5.0450660000
Ni            0.0000000000        6.3145705633        7.5402765612
Ni            0.0000000000        6.3147178490       10.0901320000
Ni            0.0000000000        6.3148651347       12.6399874388
As           -0.0000000182        8.4196238092       11.3054146635
As           -0.0000000182        8.4196238092       16.3967967940
As            0.0000000182       10.5317125334        8.8819635014
As            0.0000000182       10.5617472347       14.0162991262
Ni            1.8229020250        3.1573589245        5.0450660000
Ni            1.8227744718        3.1574325674        7.5402765612
Ni            1.8229020250        3.1573589245       10.0901320000
Ni            1.8230295782        3.1572852816       12.6399874388
As            1.8291224902        5.2658562824       11.2983004986
As            1.8551333045        5.2808736331       16.2540968738
As            1.8291225266        7.3635794157        8.8819635014
As            1.8551333409        7.3485620650       14.0162991262
End final coordinates

     Writing all to output data dir ./tutorial.save/

     General routines

     Parallel routines

   This run was terminated on:  15:10:51  30May2023

   JOB DONE.