     Program PWSCF v.7.2 starts on 30May2023 at 15:21:49

     Waiting for input...
     Reading input from standard input
Warning: card &CELL ignored
Warning: card / ignored

     Current dimensions of program PWSCF are:
     Max number of different atomic species (ntypx) = 10
     Max number of k-points (npk) =  40000
     Max angular momentum in pseudopotentials (lmaxx) =  4
     file Mn.pbesol-spn-rrkjus_psl.0.3.1.UPF: wavefunction(s)  3D renormalized
     Message from routine setup:
     using ibrav=0 with symmetry is DISCOURAGED, use correct ibrav instead

     K-points division:     npool     =       2
     R & G space division:  proc/nbgrp/npool/nimage =      14
     Subspace diagonalization in iterative solution of the eigenvalue problem:
     a serial algorithm will be used

     Using Slab Decomposition

     bravais-lattice index     =            0
     lattice parameter (alat)  =      22.7616  a.u.
     unit-cell volume          =    1175.7148 (a.u.)^3
     number of atoms/cell      =           12
     number of atomic types    =            3
     number of electrons       =       126.00
     number of Kohn-Sham states=           76
     kinetic-energy cutoff     =      40.4242  Ry
     charge density cutoff     =     161.6969  Ry
     scf convergence threshold =      1.0E-06
     mixing beta               =       0.7000
     number of iterations used =            8  plain     mixing
     energy convergence thresh.=      1.0E-04
     force convergence thresh. =      1.0E-03
     Exchange-correlation= PBESOL
                           (   1   4  10   8   0   0   0)
     nstep                     =           50

     celldm(1)=  22.761567  celldm(2)=   0.000000  celldm(3)=   0.000000
     celldm(4)=   0.000000  celldm(5)=   0.000000  celldm(6)=   0.000000

     crystal axes: (cart. coord. in units of alat)
               a(1) = (   0.908053   0.000000   0.418855 )
               a(2) = (  -0.151342   0.262132   0.418855 )
               a(3) = (   0.000000   0.000000   0.418855 )

     reciprocal axes: (cart. coord. in units 2 pi/alat)
               b(1) = (  1.101257  0.635811  0.000000 )
               b(2) = (  0.000000  3.814866  0.000000 )
               b(3) = ( -1.101257 -4.450677  2.387462 )

     PseudoPot. # 1 for Mn read from file:
     /home/valmzztt/Intermetallic_alloys/pseudos/Mn.pbesol-spn-rrkjus_psl.0.3.1.UPF
     MD5 check sum: 61e28eea34dae291f95a967fe31318f1
     Pseudo is Ultrasoft + core correction, Zval = 15.0
     Generated using &quot;atomic&quot; code by A. Dal Corso  v.6.3
     Using radial grid of 1187 points,  6 beta functions with:
                l(1) =   0
                l(2) =   0
                l(3) =   1
                l(4) =   1
                l(5) =   2
                l(6) =   2
     Q(r) pseudized with 0 coefficients

     PseudoPot. # 2 for As read from file:
     /home/valmzztt/Intermetallic_alloys/pseudos/As.pbesol-n-rrkjus_psl.1.0.0.UPF
     MD5 check sum: 2fb13bbab3d0b4e108be5408f3d6fe7c
     Pseudo is Ultrasoft + core correction, Zval =  5.0
     Generated using &quot;atomic&quot; code by A. Dal Corso  v.6.3
     Using radial grid of 1209 points,  4 beta functions with:
                l(1) =   0
                l(2) =   0
                l(3) =   1
                l(4) =   1
     Q(r) pseudized with 0 coefficients

     PseudoPot. # 3 for Ni read from file:
     /home/valmzztt/Intermetallic_alloys/pseudos/Ni.pbesol-spn-rrkjus_psl.1.0.0.UPF
     MD5 check sum: 6fc0a587bf949a08f2faed986b854013
     Pseudo is Ultrasoft + core correction, Zval = 18.0
     Generated using &quot;atomic&quot; code by A. Dal Corso  v.6.3
     Using radial grid of 1195 points,  6 beta functions with:
                l(1) =   0
                l(2) =   0
                l(3) =   1
                l(4) =   1
                l(5) =   2
                l(6) =   2
     Q(r) pseudized with 0 coefficients

     atomic species   valence    mass     pseudopotential
        Mn            15.00    54.93804     Mn( 1.00)
        As             5.00    74.92159     As( 1.00)
        Ni            18.00    58.69340     Ni( 1.00)

      8 Sym. Ops., with inversion, found ( 6 have fractional translation)

   Cartesian axes

     site n.     atom                  positions (alat units)
         1           Mn  tau(   1) = (   0.0000000   0.0000000   0.0000000  )
         2           Mn  tau(   2) = (   0.0000000   0.0000000   0.2094274  )
         3           As  tau(   3) = (  -0.0000000   0.1747549   0.5235686  )
         4           As  tau(   4) = (   0.1513422   0.0873775   0.3141411  )
         5           Ni  tau(   5) = (   0.3026844   0.0000000   0.2094274  )
         6           Ni  tau(   6) = (   0.3026844   0.0000000   0.4188549  )
         7           As  tau(   7) = (   0.3026844   0.1747549   0.5235686  )
         8           As  tau(   8) = (   0.4540266   0.0873775   0.7329960  )
         9           Mn  tau(   9) = (   0.6053688   0.0000000   0.4188549  )
        10           Mn  tau(  10) = (   0.6053688   0.0000000   0.6282823  )
        11           As  tau(  11) = (   0.6053688   0.1747549   0.9424234  )
        12           As  tau(  12) = (   0.7567110   0.0873775   0.7329960  )

     number of k points=     2  Gaussian smearing, width (Ry)=  0.0147
                       cart. coord. in units 2pi/alat
        k(    1) = (   0.0000000   0.0000000   0.0000000), wk =   1.0000000
        k(    2) = (   0.5506285   2.2253387  -1.1937309), wk =   1.0000000

     Check: negative core charge=   -0.000070

     Initial potential from superposition of free atoms

     starting charge     125.9964, renormalised to     126.0000
     Starting wfcs are   84 randomized atomic wfcs

     Self-consistent Calculation

     iteration #  1     ecut=    40.42 Ry     beta= 0.70
     Davidson diagonalization with overlap
     ethr =  1.00E-02,  avg # of iterations =  2.0

     total energy              =   -1653.15971215 Ry
     estimated scf accuracy    <       2.48607905 Ry

[...]

     End of self-consistent calculation

          k = 0.0000 0.0000 0.0000 (  5061 PWs)   bands (ev):

   -90.2789 -90.2677 -65.5226 -65.5223 -65.4780 -65.4777 -50.3732 -50.3265
   -50.2590 -50.1767 -50.1569 -50.1067 -34.7813 -34.7800 -34.4506 -34.4439
   -34.4401 -34.4386 -34.3898 -34.3866 -34.2608 -34.2591 -34.2189 -34.2177
    -1.1093   0.2353   0.2542   2.2989   2.4083   2.5909   6.4189   7.4283
     7.4939   7.9794   8.0488   8.9131   8.9432   9.1996   9.2283   9.2556
     9.3246   9.9785  10.1455  10.2644  10.3799  10.4287  10.5726  10.5770
    11.0059  11.0945  11.1056  11.6903  11.8104  11.8114  11.8669  12.2643
    12.4580  12.5252  12.7720  12.8108  12.9482  13.3277  13.4564  13.4815
    13.5398  13.5534  13.6155  13.6311  14.2053  14.7783  14.7833  15.6851
    15.8070  16.3400  16.5841  16.6124

[...]

     the Fermi energy is    13.1060 ev

!    total energy              =   -1654.89409276 Ry
     estimated scf accuracy    <       0.00000040 Ry
     smearing contrib. (-TS)   =      -0.01723941 Ry
     internal energy E=F+TS    =   -1654.87685335 Ry

     The total energy is F=E-TS. E is the sum of the following terms:
     one-electron contribution =   -1086.18668708 Ry
     hartree contribution      =     604.20299381 Ry
     xc contribution           =    -247.52325700 Ry
     ewald contribution        =    -925.36990308 Ry

     convergence has been achieved in  16 iterations

     Forces acting on atoms (cartesian axes, Ry/au):

     atom    1 type  1   force =     0.00415655    0.00239978   -0.01269827
     atom    2 type  1   force =     0.00415655    0.00239978    0.01269827
     atom    3 type  2   force =    -0.03287396   -0.01897979    0.00000000
     atom    4 type  2   force =     0.01774374    0.01024436    0.00000000
     atom    5 type  3   force =    -0.00000000    0.00000000    0.00000000
     atom    6 type  3   force =    -0.00000000   -0.00000000    0.00000000
     atom    7 type  2   force =    -0.01774374   -0.01024436    0.00000000
     atom    8 type  2   force =     0.03287396    0.01897979    0.00000000
     atom    9 type  1   force =    -0.00415655   -0.00239978    0.01269827
     atom   10 type  1   force =    -0.00415655   -0.00239978   -0.01269827
     atom   11 type  2   force =    -0.02826073   -0.01631634    0.00000000
     atom   12 type  2   force =     0.02826073    0.01631634    0.00000000
     The non-local contrib.  to forces
     atom    1 type  1   force =    -0.01326356   -0.00765772   -0.00068697
     atom    2 type  1   force =    -0.01326356   -0.00765772    0.00068697
     atom    3 type  2   force =     0.04396205    0.02538150    0.00000000
     atom    4 type  2   force =     0.00815126    0.00470613    0.00000000
     atom    5 type  3   force =     0.00000000    0.00000000    0.00000000
     atom    6 type  3   force =     0.00000000    0.00000000    0.00000000
     atom    7 type  2   force =    -0.00815126   -0.00470613    0.00000000
     atom    8 type  2   force =    -0.04396205   -0.02538150    0.00000000
     atom    9 type  1   force =     0.01326356    0.00765772    0.00068697
     atom   10 type  1   force =     0.01326356    0.00765772   -0.00068697
     atom   11 type  2   force =     0.01582036    0.00913389    0.00000000
     atom   12 type  2   force =    -0.01582036   -0.00913389    0.00000000
     The ionic contribution  to forces
     atom    1 type  1   force =    -4.84865425   -2.79937184    0.00000000
     atom    2 type  1   force =    -4.84865425   -2.79937184   -0.00000000
     atom    3 type  2   force =    -2.94445033   -1.69997934   -0.00000000
     atom    4 type  2   force =    -2.38431267   -1.37658336   -0.00000000
     atom    5 type  3   force =    -0.00000000   -0.00000000    0.00000000
     atom    6 type  3   force =    -0.00000000   -0.00000000   -0.00000000
     atom    7 type  2   force =     2.38431267    1.37658336    0.00000000
     atom    8 type  2   force =     2.94445033    1.69997934   -0.00000000
     atom    9 type  1   force =     4.84865425    2.79937184    0.00000000
     atom   10 type  1   force =     4.84865425    2.79937184    0.00000000
     atom   11 type  2   force =     0.56013811    0.32339572    0.00000000
     atom   12 type  2   force =    -0.56013811   -0.32339572   -0.00000000
     The local contribution  to forces
     atom    1 type  1   force =     4.86974846    2.81155058   -0.01155034
     atom    2 type  1   force =     4.86974846    2.81155058    0.01155034
     atom    3 type  2   force =     2.88140672    1.66358112   -0.00000000
     atom    4 type  2   force =     2.39971049    1.38547327    0.00000000
     atom    5 type  3   force =     0.00000000    0.00000000   -0.00000000
     atom    6 type  3   force =     0.00000000    0.00000000   -0.00000000
     atom    7 type  2   force =    -2.39971049   -1.38547327    0.00000000
     atom    8 type  2   force =    -2.88140672   -1.66358112    0.00000000
     atom    9 type  1   force =    -4.86974846   -2.81155058    0.01155034
     atom   10 type  1   force =    -4.86974846   -2.81155058   -0.01155034
     atom   11 type  2   force =    -0.60142570   -0.34723310   -0.00000000
     atom   12 type  2   force =     0.60142570    0.34723310    0.00000000
     The core correction contribution to forces
     atom    1 type  1   force =    -0.00189029   -0.00109085   -0.00036329
     atom    2 type  1   force =    -0.00189029   -0.00109085    0.00036329
     atom    3 type  2   force =    -0.01338341   -0.00772683    0.00000000
     atom    4 type  2   force =    -0.00566380   -0.00326989    0.00000000
     atom    5 type  3   force =     0.00000000    0.00000000   -0.00000000
     atom    6 type  3   force =     0.00000000    0.00000000   -0.00000000
     atom    7 type  2   force =     0.00566380    0.00326989   -0.00000000
     atom    8 type  2   force =     0.01338341    0.00772683    0.00000000
     atom    9 type  1   force =     0.00189029    0.00109085    0.00036329
     atom   10 type  1   force =     0.00189029    0.00109085   -0.00036329
     atom   11 type  2   force =    -0.00299445   -0.00172878   -0.00000000
     atom   12 type  2   force =     0.00299445    0.00172878   -0.00000000
     The Hubbard contrib.    to forces
     atom    1 type  1   force =     0.00000000    0.00000000    0.00000000
     atom    2 type  1   force =     0.00000000    0.00000000    0.00000000
     atom    3 type  2   force =     0.00000000    0.00000000    0.00000000
     atom    4 type  2   force =     0.00000000    0.00000000    0.00000000
     atom    5 type  3   force =     0.00000000    0.00000000    0.00000000
     atom    6 type  3   force =     0.00000000    0.00000000    0.00000000
     atom    7 type  2   force =     0.00000000    0.00000000    0.00000000
     atom    8 type  2   force =     0.00000000    0.00000000    0.00000000
     atom    9 type  1   force =     0.00000000    0.00000000    0.00000000
     atom   10 type  1   force =     0.00000000    0.00000000    0.00000000
     atom   11 type  2   force =     0.00000000    0.00000000    0.00000000
     atom   12 type  2   force =     0.00000000    0.00000000    0.00000000
     The SCF correction term to forces
     atom    1 type  1   force =    -0.00178403   -0.00103001   -0.00009766
     atom    2 type  1   force =    -0.00178403   -0.00103001    0.00009766
     atom    3 type  2   force =    -0.00040904   -0.00023616    0.00000000
     atom    4 type  2   force =    -0.00014157   -0.00008174    0.00000000
     atom    5 type  3   force =    -0.00000000    0.00000000   -0.00000000
     atom    6 type  3   force =    -0.00000000    0.00000000   -0.00000000
     atom    7 type  2   force =     0.00014157    0.00008174   -0.00000000
     atom    8 type  2   force =     0.00040904    0.00023616   -0.00000000
     atom    9 type  1   force =     0.00178403    0.00103001    0.00009766
     atom   10 type  1   force =     0.00178403    0.00103001   -0.00009766
     atom   11 type  2   force =     0.00020092    0.00011600   -0.00000000
     atom   12 type  2   force =    -0.00020092   -0.00011600    0.00000000

     Total force =     0.081169     Total SCF correction =     0.004198

     BFGS Geometry Optimization
     Energy error            =      0.0E+00 Ry
     Gradient error          =      3.3E-02 Ry/Bohr

     number of scf cycles    =   1
     number of bfgs steps    =   0

     energy             new  =   -1654.8940927597 Ry

     new trust radius        =       0.0379595749 bohr
     new conv_thr            =       0.0000010000 Ry

ATOMIC_POSITIONS (angstrom)
Mn            0.0021995494        0.0012699104       -0.0067196336
Mn            0.0021995494        0.0012699104        2.5292526336
As           -0.0173961666        2.0948622892        6.3063325000
As            1.8322916280        1.0578740436        3.7837995000
Ni            3.6458040500        0.0000000000        2.5225330000
Ni            3.6458040500       -0.0000000000        5.0450660000
As            3.6364144470        2.0994848809        6.3063325000
As            5.4861022416        1.0624966353        8.8288655000
Mn            7.2894085506       -0.0012699104        5.0517856336
Mn            7.2894085506       -0.0012699104        7.5608793664
As            7.2766531497        2.0962717261       11.3513985000
As            9.1294650753        1.0610871984        8.8288655000

     Writing config-only to output data dir ./tutorial.save/
     NEW-OLD atomic charge density approx. for the potential

[...]

     Total force =     0.064796     Total SCF correction =     0.001044
     Energy error            =      5.9E-03 Ry
     Gradient error          =      2.7E-02 Ry/Bohr

[...]

     energy             old  =   -1654.8940927597 Ry
     energy             new  =   -1654.9000157088 Ry

     CASE: energy            _new < energy            _old

[...]

     Threshold (ethr) on eigenvalues was too large:
     Diagonalizing with lowered threshold

     Davidson diagonalization with overlap
     ethr =  1.73E-08,  avg # of iterations =  2.0

[...]

     Total force =     0.004076     Total SCF correction =     0.000138
     Energy error            =      5.7E-05 Ry
     Gradient error          =      1.9E-03 Ry/Bohr

     number of scf cycles    =  11
     number of bfgs steps    =  10

     energy             old  =   -1654.9169908859 Ry
     energy             new  =   -1654.9170476349 Ry

     CASE: energy            _new < energy            _old

     new trust radius        =       0.0105443417 bohr
     new conv_thr            =       0.0000000100 Ry

ATOMIC_POSITIONS (angstrom)
Mn            0.0513653707        0.0296558106       -0.0766557809
Mn            0.0513653707        0.0296558106        2.5991887809
As           -0.1438044933        2.0218804078        6.3063325000
As            1.8857266417        1.0887247631        3.7837995000
Ni            3.6458040500        0.0000000000        2.5225330000
Ni            3.6458040500       -0.0000000000        5.0450660000
As            3.5829794333        2.0686341614        6.3063325000
As            5.6125105683        1.1354785167        8.8288655000
Mn            7.2402427293       -0.0296558106        5.1217217809
Mn            7.2402427293       -0.0296558106        7.4909432191
As            7.2684122155        2.0915138205       11.3513985000
As            9.1377060095        1.0658451040        8.8288655000

     Writing config-only to output data dir ./tutorial.save/
     NEW-OLD atomic charge density approx. for the potential

     Check: negative core charge=   -0.000070

     Self-consistent Calculation

[...]

     Threshold (ethr) on eigenvalues was too large:
     Diagonalizing with lowered threshold

     Davidson diagonalization with overlap
     ethr =  7.23E-08,  avg # of iterations =  2.0

[...]

     total energy              =   -1654.91708475 Ry
     estimated scf accuracy    <       0.00000017 Ry

     iteration #  8     ecut=    40.42 Ry     beta= 0.70
     Davidson diagonalization with overlap
     ethr =  1.35E-10,  avg # of iterations =  3.0

     End of self-consistent calculation

[...]

          k = 0.5506 2.2253-1.1937 (  5096 PWs)   bands (ev):

   -90.2476 -90.2476 -65.6751 -65.6751 -65.6403 -65.6403 -50.3142 -50.3142
   -50.1992 -50.1992 -50.1581 -50.1581 -34.9161 -34.9161 -34.7103 -34.7103
   -34.5594 -34.5594 -34.5256 -34.5256 -34.3996 -34.3996 -34.3730 -34.3730
     1.5359   1.5359   1.6785   1.6785   1.7414   1.7414   6.5284   6.5284
     6.9741   6.9741   7.0690   7.0690   8.9200   8.9200   9.1735   9.1735
     9.7072   9.7072  10.0461  10.0461  10.1979  10.1979  10.5925  10.5925
    11.2409  11.2409  11.3165  11.3165  11.3613  11.3613  11.9166  11.9166
    12.1321  12.1321  12.3726  12.3726  12.6526  12.6526  12.7550  12.7550
    12.9068  12.9068  13.5718  13.5718  13.8338  13.8338  14.2670  14.2670
    15.6306  15.6306  16.5106  16.5106

     the Fermi energy is    12.9643 ev

!    total energy              =   -1654.91708477 Ry
     estimated scf accuracy    <          2.0E-09 Ry
     smearing contrib. (-TS)   =      -0.01516763 Ry
     internal energy E=F+TS    =   -1654.90191714 Ry

     The total energy is F=E-TS. E is the sum of the following terms:
     one-electron contribution =   -1092.36644874 Ry
     hartree contribution      =     607.01523007 Ry
     xc contribution           =    -247.53933496 Ry
     ewald contribution        =    -922.01136351 Ry

     convergence has been achieved in   8 iterations

     Forces acting on atoms (cartesian axes, Ry/au):

     atom    1 type  1   force =     0.00055890    0.00032268   -0.00085890
     atom    2 type  1   force =     0.00055890    0.00032268    0.00085890
     atom    3 type  2   force =     0.00059498    0.00034351    0.00000000
     atom    4 type  2   force =    -0.00000432   -0.00000249    0.00000000
     atom    5 type  3   force =     0.00000000    0.00000000    0.00000000
     atom    6 type  3   force =     0.00000000    0.00000000    0.00000000
     atom    7 type  2   force =     0.00000432    0.00000249    0.00000000
     atom    8 type  2   force =    -0.00059498   -0.00034351    0.00000000
     atom    9 type  1   force =    -0.00055890   -0.00032268    0.00085890
     atom   10 type  1   force =    -0.00055890   -0.00032268   -0.00085890
     atom   11 type  2   force =    -0.00068702   -0.00039665    0.00000000
     atom   12 type  2   force =     0.00068702    0.00039665    0.00000000
     The non-local contrib.  to forces
     atom    1 type  1   force =     0.01072319    0.00619104    0.00643791
     atom    2 type  1   force =     0.01072319    0.00619104   -0.00643791
     atom    3 type  2   force =     0.04830030    0.02788619    0.00000000
     atom    4 type  2   force =     0.00069272    0.00039994    0.00000000
     atom    5 type  3   force =    -0.00000000   -0.00000000    0.00000000
     atom    6 type  3   force =    -0.00000000   -0.00000000    0.00000000
     atom    7 type  2   force =    -0.00069272   -0.00039994    0.00000000
     atom    8 type  2   force =    -0.04830030   -0.02788619    0.00000000
     atom    9 type  1   force =    -0.01072319   -0.00619104   -0.00643791
     atom   10 type  1   force =    -0.01072319   -0.00619104    0.00643791
     atom   11 type  2   force =     0.02191320    0.01265159    0.00000000
     atom   12 type  2   force =    -0.02191320   -0.01265159    0.00000000
     The ionic contribution  to forces
     atom    1 type  1   force =    -7.09786462   -4.09795403    4.78251628
     atom    2 type  1   force =    -7.09786462   -4.09795403   -4.78251628
     atom    3 type  2   force =    -2.64620384   -1.52778669   -0.00000000
     atom    4 type  2   force =    -2.08847320   -1.20578034    0.00000000
     atom    5 type  3   force =     0.00000000   -0.00000000    0.00000000
     atom    6 type  3   force =     0.00000000   -0.00000000   -0.00000000
     atom    7 type  2   force =     2.08847320    1.20578034   -0.00000000
     atom    8 type  2   force =     2.64620384    1.52778669   -0.00000000
     atom    9 type  1   force =     7.09786462    4.09795403   -4.78251628
     atom   10 type  1   force =     7.09786462    4.09795403    4.78251628
     atom   11 type  2   force =     2.16429407    1.24955558   -0.00000000
     atom   12 type  2   force =    -2.16429407   -1.24955558   -0.00000000
     The local contribution  to forces
     atom    1 type  1   force =     7.08765974    4.09206226   -4.79364250
     atom    2 type  1   force =     7.08765974    4.09206226    4.79364250
     atom    3 type  2   force =     2.61856927    1.51183189    0.00000000
     atom    4 type  2   force =     2.09477782    1.20942029    0.00000000
     atom    5 type  3   force =    -0.00000000   -0.00000000   -0.00000000
     atom    6 type  3   force =    -0.00000000   -0.00000000   -0.00000000
     atom    7 type  2   force =    -2.09477782   -1.20942029    0.00000000
     atom    8 type  2   force =    -2.61856927   -1.51183189    0.00000000
     atom    9 type  1   force =    -7.08765974   -4.09206226    4.79364250
     atom   10 type  1   force =    -7.08765974   -4.09206226   -4.79364250
     atom   11 type  2   force =    -2.17434871   -1.25536060    0.00000000
     atom   12 type  2   force =     2.17434871    1.25536060    0.00000000
     The core correction contribution to forces
     atom    1 type  1   force =    -0.00009688   -0.00005477    0.00386547
     atom    2 type  1   force =    -0.00009688   -0.00005477   -0.00386547
     atom    3 type  2   force =    -0.02010073   -0.01160512    0.00000000
     atom    4 type  2   force =    -0.00701065   -0.00404753    0.00000000
     atom    5 type  3   force =    -0.00000000    0.00000000   -0.00000000
     atom    6 type  3   force =    -0.00000000    0.00000000   -0.00000000
     atom    7 type  2   force =     0.00701065    0.00404753    0.00000000
     atom    8 type  2   force =     0.02010073    0.01160512    0.00000000
     atom    9 type  1   force =     0.00009688    0.00005477   -0.00386547
     atom   10 type  1   force =     0.00009688    0.00005477    0.00386547
     atom   11 type  2   force =    -0.01252490   -0.00723119    0.00000000
     atom   12 type  2   force =     0.01252490    0.00723119    0.00000000
     The Hubbard contrib.    to forces
     atom    1 type  1   force =     0.00000000    0.00000000    0.00000000
     atom    2 type  1   force =     0.00000000    0.00000000    0.00000000
     atom    3 type  2   force =     0.00000000    0.00000000    0.00000000
     atom    4 type  2   force =     0.00000000    0.00000000    0.00000000
     atom    5 type  3   force =     0.00000000    0.00000000    0.00000000
     atom    6 type  3   force =     0.00000000    0.00000000    0.00000000
     atom    7 type  2   force =     0.00000000    0.00000000    0.00000000
     atom    8 type  2   force =     0.00000000    0.00000000    0.00000000
     atom    9 type  1   force =     0.00000000    0.00000000    0.00000000
     atom   10 type  1   force =     0.00000000    0.00000000    0.00000000
     atom   11 type  2   force =     0.00000000    0.00000000    0.00000000
     atom   12 type  2   force =     0.00000000    0.00000000    0.00000000
     The SCF correction term to forces
     atom    1 type  1   force =     0.00013696    0.00007907   -0.00003607
     atom    2 type  1   force =     0.00013696    0.00007907    0.00003607
     atom    3 type  2   force =     0.00002996    0.00001729    0.00000000
     atom    4 type  2   force =     0.00000897    0.00000518   -0.00000000
     atom    5 type  3   force =    -0.00000000    0.00000000    0.00000000
     atom    6 type  3   force =    -0.00000000   -0.00000000    0.00000000
     atom    7 type  2   force =    -0.00000897   -0.00000518   -0.00000000
     atom    8 type  2   force =    -0.00002996   -0.00001729   -0.00000000
     atom    9 type  1   force =    -0.00013696   -0.00007907    0.00003607
     atom   10 type  1   force =    -0.00013696   -0.00007907   -0.00003607
     atom   11 type  2   force =    -0.00002072   -0.00001196   -0.00000000
     atom   12 type  2   force =     0.00002072    0.00001196    0.00000000

     Total force =     0.002611     Total SCF correction =     0.000330
     SCF correction compared to forces is large: reduce conv_thr to get better values
     Energy error            =      3.7E-05 Ry
     Gradient error          =      8.6E-04 Ry/Bohr

     bfgs converged in  12 scf cycles and  11 bfgs steps
     (criteria: energy <  1.0E-04 Ry, force <  1.0E-03 Ry/Bohr)

     End of BFGS Geometry Optimization

     Final energy             =   -1654.9170847740 Ry

     File ./tutorial.bfgs deleted, as requested
Begin final coordinates

ATOMIC_POSITIONS (angstrom)
Mn            0.0513653707        0.0296558106       -0.0766557809
Mn            0.0513653707        0.0296558106        2.5991887809
As           -0.1438044933        2.0218804078        6.3063325000
As            1.8857266417        1.0887247631        3.7837995000
Ni            3.6458040500        0.0000000000        2.5225330000
Ni            3.6458040500       -0.0000000000        5.0450660000
As            3.5829794333        2.0686341614        6.3063325000
As            5.6125105683        1.1354785167        8.8288655000
Mn            7.2402427293       -0.0296558106        5.1217217809
Mn            7.2402427293       -0.0296558106        7.4909432191
As            7.2684122155        2.0915138205       11.3513985000
As            9.1377060095        1.0658451040        8.8288655000
End final coordinates

     Writing all to output data dir ./tutorial.save/

     General routines

     Parallel routines

   This run was terminated on:  15:22:15  30May2023

   JOB DONE.