     Program PWSCF v.7.2 starts on 30May2023 at 14: 7:20

     Waiting for input...
     Reading input from standard input
Warning: card &CELL ignored
Warning: card / ignored

     Current dimensions of program PWSCF are:
     Max number of different atomic species (ntypx) = 10
     Max number of k-points (npk) =  40000
     Max angular momentum in pseudopotentials (lmaxx) =  4
     file Mn.pbesol-spn-rrkjus_psl.0.3.1.UPF: wavefunction(s)  3D renormalized
     Message from routine setup:
     using ibrav=0 with symmetry is DISCOURAGED, use correct ibrav instead

     R & G space division:  proc/nbgrp/npool/nimage =      28
     Subspace diagonalization in iterative solution of the eigenvalue problem:
     a serial algorithm will be used

     Using Slab Decomposition

     bravais-lattice index     =            0
     lattice parameter (alat)  =      16.7558  a.u.
     unit-cell volume          =    1567.6197 (a.u.)^3
     number of atoms/cell      =           16
     number of atomic types    =            3
     number of electrons       =       178.00
     number of Kohn-Sham states=          107
     kinetic-energy cutoff     =      40.4242  Ry
     charge density cutoff     =     161.6969  Ry
     scf convergence threshold =      1.0E-06
     mixing beta               =       0.7000
     number of iterations used =            8  plain     mixing
     energy convergence thresh.=      1.0E-04
     force convergence thresh. =      1.0E-03
     Exchange-correlation= PBESOL
                           (   1   4  10   8   0   0   0)
     nstep                     =           50

     celldm(1)=  16.755834  celldm(2)=   0.000000  celldm(3)=   0.000000
     celldm(4)=   0.000000  celldm(5)=   0.000000  celldm(6)=   0.000000

     crystal axes: (cart. coord. in units of alat)
               a(1) = (   0.822349   0.000000   0.568983 )
               a(2) = (  -0.205587   0.356088   0.568983 )
               a(3) = (   0.000000   0.000000   1.137967 )

     reciprocal axes: (cart. coord. in units 2 pi/alat)
               b(1) = (  1.216029  0.702075  0.000000 )
               b(2) = (  0.000000  2.808298  0.000000 )
               b(3) = ( -0.608014 -1.755186  0.878760 )

     PseudoPot. # 1 for Ni read from file:
     /home/valmzztt/Intermetallic_alloys/pseudos/Ni.pbesol-spn-rrkjus_psl.1.0.0.UPF
     MD5 check sum: 6fc0a587bf949a08f2faed986b854013
     Pseudo is Ultrasoft + core correction, Zval = 18.0
     Generated using &quot;atomic&quot; code by A. Dal Corso  v.6.3
     Using radial grid of 1195 points,  6 beta functions with:
                l(1) =   0
                l(2) =   0
                l(3) =   1
                l(4) =   1
                l(5) =   2
                l(6) =   2
     Q(r) pseudized with 0 coefficients

     PseudoPot. # 2 for Mn read from file:
     /home/valmzztt/Intermetallic_alloys/pseudos/Mn.pbesol-spn-rrkjus_psl.0.3.1.UPF
     MD5 check sum: 61e28eea34dae291f95a967fe31318f1
     Pseudo is Ultrasoft + core correction, Zval = 15.0
     Generated using &quot;atomic&quot; code by A. Dal Corso  v.6.3
     Using radial grid of 1187 points,  6 beta functions with:
                l(1) =   0
                l(2) =   0
                l(3) =   1
                l(4) =   1
                l(5) =   2
                l(6) =   2
     Q(r) pseudized with 0 coefficients

     PseudoPot. # 3 for As read from file:
     /home/valmzztt/Intermetallic_alloys/pseudos/As.pbesol-n-rrkjus_psl.1.0.0.UPF
     MD5 check sum: 2fb13bbab3d0b4e108be5408f3d6fe7c
     Pseudo is Ultrasoft + core correction, Zval =  5.0
     Generated using &quot;atomic&quot; code by A. Dal Corso  v.6.3
     Using radial grid of 1209 points,  4 beta functions with:
                l(1) =   0
                l(2) =   0
                l(3) =   1
                l(4) =   1
     Q(r) pseudized with 0 coefficients

     atomic species   valence    mass     pseudopotential
        Ni            18.00    58.69340     Ni( 1.00)
        Mn            15.00    54.93804     Mn( 1.00)
        As             5.00    74.92159     As( 1.00)

      4 Sym. Ops., with inversion, found ( 3 have fractional translation)

   Cartesian axes

     site n.     atom                  positions (alat units)
         1           Ni  tau(   1) = (   0.0000000   0.0000000   0.0000000  )
         2           Ni  tau(   2) = (   0.0000000   0.0000000   0.2844917  )
         3           Ni  tau(   3) = (   0.0000000   0.0000000   0.5689835  )
         4           Mn  tau(   4) = (   0.0000000   0.0000000   0.8534752  )
         5           As  tau(   5) = (  -0.0000000   0.2373917   0.7112294  )
         6           As  tau(   6) = (  -0.0000000   0.2373917   1.2802129  )
         7           As  tau(   7) = (   0.2055872   0.1186958   0.4267376  )
         8           As  tau(   8) = (   0.2055872   0.1186958   0.9957211  )
         9           Ni  tau(   9) = (   0.4111745   0.0000000   0.2844917  )
        10           Mn  tau(  10) = (   0.4111745   0.0000000   0.5689835  )
        11           Ni  tau(  11) = (   0.4111745   0.0000000   0.8534752  )
        12           Ni  tau(  12) = (   0.4111745   0.0000000   1.1379670  )
        13           As  tau(  13) = (   0.4111745   0.2373917   1.2802129  )
        14           As  tau(  14) = (   0.4111745   0.2373917   1.8491964  )
        15           As  tau(  15) = (   0.6167617   0.1186958   0.9957211  )
        16           As  tau(  16) = (   0.6167617   0.1186958   1.5647046  )

     number of k points=     1  Gaussian smearing, width (Ry)=  0.0147
                       cart. coord. in units 2pi/alat
        k(    1) = (   0.0000000   0.0000000   0.0000000), wk =   2.0000000

     Check: negative core charge=   -0.000035

     Initial potential from superposition of free atoms

     starting charge     177.9959, renormalised to     178.0000
     Starting wfcs are  112 randomized atomic wfcs

     Self-consistent Calculation

     iteration #  1     ecut=    40.42 Ry     beta= 0.70
     Davidson diagonalization with overlap
     ethr =  1.00E-02,  avg # of iterations =  4.0

     total energy              =   -2622.53037727 Ry
     estimated scf accuracy    <       2.91511489 Ry

[...]

     End of self-consistent calculation

          k = 0.0000 0.0000 0.0000 (  6739 PWs)   bands (ev):

   -90.3357 -90.3354 -90.1833 -90.1833 -90.1833 -90.1827 -65.6451 -65.6451
   -50.4082 -50.3731 -50.3224 -50.2743 -50.2670 -50.2583 -50.2544 -50.2338
   -50.1990 -50.1969 -50.1941 -50.1894 -50.1704 -50.1384 -50.0084 -50.0074
   -50.0035 -49.9633 -34.7643 -34.7641 -34.5018 -34.5016 -34.4513 -34.4512
    -1.4364   0.9119   1.2868   1.2971   1.3541   1.3577   1.5661   2.2202
     6.0580   6.2203   6.7517   6.7807   6.7839   6.7943   8.4135   8.4145
     8.4203   8.4308   8.7332   8.7542   8.8943   9.0297   9.1175   9.1713
     9.7237   9.8384   9.8902   9.9783   9.9907  10.0427  10.0885  10.5791
    10.5852  10.9788  10.9908  11.0225  11.0657  11.0742  11.1622  11.3681
    11.3813  11.4302  11.4703  11.5450  11.6142  11.6200  11.6308  11.7460
    11.8084  11.8746  12.1683  12.3245  12.3288  12.4703  12.4807  12.5926
    12.7007  12.9036  13.1091  13.1144  13.2619  13.4516  13.8266  14.8189
    15.4309  15.6947  15.7029  15.9107  15.9323  16.2615  16.3028  16.5443
    16.9596  17.7517  18.2053

     the Fermi energy is    12.8121 ev

!    total energy              =   -2624.34657441 Ry
     estimated scf accuracy    <       0.00000044 Ry
     smearing contrib. (-TS)   =      -0.01813121 Ry
     internal energy E=F+TS    =   -2624.32844321 Ry

     The total energy is F=E-TS. E is the sum of the following terms:
     one-electron contribution =   -1902.37859994 Ry
     hartree contribution      =    1039.05288566 Ry
     xc contribution           =    -351.10158792 Ry
     ewald contribution        =   -1409.90114101 Ry

     convergence has been achieved in  17 iterations

     Forces acting on atoms (cartesian axes, Ry/au):

     atom    1 type  1   force =    -0.00749662    0.00371276    0.01127309
     atom    2 type  1   force =     0.00000000    0.00000000    0.00000000
     atom    3 type  1   force =     0.00749662   -0.00371276   -0.01127309
     atom    4 type  2   force =     0.00000000    0.00000000    0.00000000
     atom    5 type  3   force =    -0.02616294   -0.02373882    0.00251434
     atom    6 type  3   force =    -0.03160212   -0.01036036   -0.00852646
     atom    7 type  3   force =     0.03363989    0.01078837    0.00251434
     atom    8 type  3   force =     0.02477340    0.02218806   -0.00852646
     atom    9 type  1   force =    -0.00053297   -0.00834865   -0.01127309
     atom   10 type  2   force =     0.00000000    0.00000000    0.00000000
     atom   11 type  1   force =     0.00053297    0.00834865    0.01127309
     atom   12 type  1   force =     0.00000000    0.00000000    0.00000000
     atom   13 type  3   force =    -0.03363989   -0.01078837   -0.00251434
     atom   14 type  3   force =    -0.02477340   -0.02218806    0.00852646
     atom   15 type  3   force =     0.02616294    0.02373882   -0.00251434
     atom   16 type  3   force =     0.03160212    0.01036036    0.00852646
     The non-local contrib.  to forces
     atom    1 type  1   force =     0.02086456    0.01402693    0.02216467
     atom    2 type  1   force =     0.00000000    0.00000000    0.00000000
     atom    3 type  1   force =    -0.02086456   -0.01402693   -0.02216467
     atom    4 type  2   force =     0.00000000    0.00000000    0.00000000
     atom    5 type  3   force =     0.00161855   -0.00043036    0.01720107
     atom    6 type  3   force =     0.01756529   -0.01176378    0.02036414
     atom    7 type  3   force =    -0.00043658   -0.00161688    0.01720107
     atom    8 type  3   force =     0.00140509   -0.02109388    0.02036414
     atom    9 type  1   force =     0.02257996    0.01105578   -0.02216467
     atom   10 type  2   force =     0.00000000    0.00000000    0.00000000
     atom   11 type  1   force =    -0.02257996   -0.01105578    0.02216467
     atom   12 type  1   force =     0.00000000    0.00000000    0.00000000
     atom   13 type  3   force =     0.00043658    0.00161688   -0.01720107
     atom   14 type  3   force =    -0.00140509    0.02109388   -0.02036414
     atom   15 type  3   force =    -0.00161855    0.00043036   -0.01720107
     atom   16 type  3   force =    -0.01756529    0.01176378   -0.02036414
     The ionic contribution  to forces
     atom    1 type  1   force =    -0.59233682    1.02595747   -3.26532667
     atom    2 type  1   force =     0.00000000   -0.00000000    0.00000000
     atom    3 type  1   force =     0.59233682   -1.02595747    3.26532667
     atom    4 type  2   force =     0.00000000   -0.00000000    0.00000000
     atom    5 type  3   force =     0.09145966   -0.83832039    0.52198155
     atom    6 type  3   force =    -0.09145933    0.83832020   -0.14064928
     atom    7 type  3   force =     0.68027678   -0.49836630    0.52198157
     atom    8 type  3   force =    -0.68027711    0.49836649   -0.14064931
     atom    9 type  1   force =     0.59233682   -1.02595747    3.26532667
[...]
     new conv_thr            =       0.0000010000 Ry

ATOMIC_POSITIONS (angstrom)
Ni           -0.0039670428        0.0019647091        0.0059654637
Ni            0.0000000000        0.0000000000        2.5225330000
Ni            0.0039670428       -0.0019647091        5.0391005363
Mn            0.0000000000        0.0000000000        7.5675990000
As           -0.0138448514        2.0923439198        6.3076630290
As           -0.0167231423        2.0994234918       11.3468864899
As            1.8407035059        1.0581619213        3.7851300290
As            1.8360115621        1.0641943804        8.8243534899
Ni            3.6455220166       -0.0044179144        2.5165675363
Mn            3.6458040500        0.0000000000        5.0450660000
Ni            3.6460860834        0.0044179144        7.5735644637
Ni            3.6458040500        0.0000000000       10.0901320000
As            3.6280025691        2.0991970032       11.3500679710
As            3.6326945129        2.0931645441       16.4009765101
As            5.4825509264        1.0650150047        8.8275349710
As            5.4854292173        1.0579354327       13.8784435101

     Writing config-only to output data dir ./tutorial.save/
     NEW-OLD atomic charge density approx. for the potential

[...]

     Total force =     0.084958     Total SCF correction =     0.001157
     Energy error            =      9.7E-03 Ry
     Gradient error          =      2.8E-02 Ry/Bohr

[...]

     energy             old  =   -2624.3465744117 Ry
     energy             new  =   -2624.3562368211 Ry

     CASE: energy            _new < energy            _old

     WARNING: bfgs curvature condition failed, Theta= 0.968
     new trust radius        =       0.0389585286 bohr
     new conv_thr            =       0.0000002789 Ry

[...]

     CASE: energy            _new > energy            _old

[...]

     negative rho (up, down):  2.527E-02 0.000E+00

[...]

     negative rho (up, down):  1.045E-02 0.000E+00

[...]

     new trust radius        =       0.0000068670 bohr

     trust_radius < trust_radius_min

     resetting bfgs history

     new conv_thr            =       0.0000001957 Ry

[...]

     CASE: energy            _new > energy            _old

     new trust radius        =       0.0000403167 bohr

     trust_radius < trust_radius_min

     resetting bfgs history

     new conv_thr            =       0.0000001957 Ry

[...]

     WARNING: bfgs curvature condition failed, Theta= 0.790
     new trust radius        =       0.0272615156 bohr
     new conv_thr            =       0.0000001552 Ry

[...]

     number of scf cycles    =  43
     number of bfgs steps    =  26

     energy             old  =   -2624.4319164529 Ry
     energy             new  =   -2624.4319324841 Ry

     CASE: energy            _new < energy            _old

     new trust radius        =       0.0039026236 bohr
     new conv_thr            =       0.0000000100 Ry

ATOMIC_POSITIONS (angstrom)
Ni           -0.3508852059       -0.2057708309        0.1399061966
Ni           -0.0000000000        0.0000000000        2.5225330000
Ni            0.3508852059        0.2057708309        4.9051598034
Mn           -0.0000000000        0.0000000000        7.5675990000
As           -0.2323501202        1.9832432392        6.2476150279
As           -0.0761509141        2.0051988728       11.2286026896
As            2.0444401013        1.1928426948        3.7250820279
As            1.9473263618        1.0685480310        8.7060696896
Ni            3.2921586802       -0.2009900866        2.3826268034
Mn            3.6458040500        0.0000000000        5.0450660000
Ni            3.9994494198        0.2009900866        7.7075051966
Ni            3.6458040500       -0.0000000000       10.0901320000
As            3.4242659737        1.9645162297       11.4101159721
As            3.5213797132        2.0888108935       16.5192603104
As            5.7010561952        1.1741156853        8.8875829721
As            5.5448569891        1.1521600517       13.9967273104

     Writing config-only to output data dir ./tutorial.save/
     NEW-OLD atomic charge density approx. for the potential

     Check: negative core charge=   -0.000036

     Self-consistent Calculation

[...]

     total energy              =   -2624.43194664 Ry
     estimated scf accuracy    <       0.00000147 Ry

     iteration # 13     ecut=    40.42 Ry     beta= 0.70
     Davidson diagonalization with overlap
     ethr =  8.03E-10,  avg # of iterations =  2.0

     End of self-consistent calculation

          k = 0.0000 0.0000 0.0000 (  6739 PWs)   bands (ev):

   -90.8107 -90.8106 -90.8099 -90.8097 -90.5070 -90.5067 -65.8224 -65.8224
   -50.9706 -50.9428 -50.9342 -50.9218 -50.8375 -50.8339 -50.7799 -50.7358
   -50.5684 -50.5606 -50.5393 -50.5357 -50.5149 -50.4665 -50.4580 -50.4370
   -50.3742 -50.3440 -34.8983 -34.8980 -34.6938 -34.6936 -34.6057 -34.6053
    -1.5049   0.6729   1.0589   1.1404   1.3089   1.4621   1.6436   2.3602
     5.9598   6.7968   6.8046   6.8336   6.9661   7.1580   7.7056   7.9600
     8.0959   8.3597   8.3681   8.4550   8.6914   8.7902   9.0343   9.4004
     9.4056   9.4951   9.6626   9.6832   9.8260   9.8873   9.8929  10.1295
    10.3196  10.5243  10.5717  10.5894  10.6280  10.7338  10.7953  10.9230
    10.9700  11.0713  11.1245  11.2117  11.2747  11.4752  11.4886  11.5640
    11.6245  11.6747  11.6925  11.7676  11.8156  11.9499  12.1803  12.3681
    12.4610  12.8538  13.1590  13.3165  13.3966  13.6110  13.7439  14.3928
    15.3634  15.5392  15.5674  15.9165  15.9846  16.4078  16.5727  16.7065
    16.9618  17.4452  18.2836

     the Fermi energy is    12.6656 ev

!    total energy              =   -2624.43194672 Ry
     estimated scf accuracy    <          8.7E-09 Ry
     smearing contrib. (-TS)   =      -0.00728429 Ry
     internal energy E=F+TS    =   -2624.42466243 Ry

     The total energy is F=E-TS. E is the sum of the following terms:
     one-electron contribution =   -1924.22049966 Ry
     hartree contribution      =    1048.15075259 Ry
     xc contribution           =    -351.15820409 Ry
     ewald contribution        =   -1397.19671127 Ry

     convergence has been achieved in  13 iterations

     Forces acting on atoms (cartesian axes, Ry/au):

     atom    1 type  1   force =    -0.00024629    0.00024892    0.00019434
     atom    2 type  1   force =     0.00000000    0.00000000    0.00000000
     atom    3 type  1   force =     0.00024629   -0.00024892   -0.00019434
     atom    4 type  2   force =     0.00000000    0.00000000    0.00000000
     atom    5 type  3   force =     0.00020578   -0.00000520   -0.00016027
     atom    6 type  3   force =    -0.00001155   -0.00041235    0.00003178
     atom    7 type  3   force =    -0.00009838   -0.00018081   -0.00016027
     atom    8 type  3   force =     0.00036288   -0.00019617    0.00003178
     atom    9 type  1   force =     0.00009243   -0.00033775   -0.00019434
     atom   10 type  2   force =     0.00000000    0.00000000    0.00000000
     atom   11 type  1   force =    -0.00009243    0.00033775    0.00019434
     atom   12 type  1   force =     0.00000000    0.00000000    0.00000000
     atom   13 type  3   force =     0.00009838    0.00018081    0.00016027
     atom   14 type  3   force =    -0.00036288    0.00019617   -0.00003178
     atom   15 type  3   force =    -0.00020578    0.00000520    0.00016027
     atom   16 type  3   force =     0.00001155    0.00041235   -0.00003178
     The non-local contrib.  to forces
     atom    1 type  1   force =    -0.19264424   -0.16703352    0.00799565
     atom    2 type  1   force =     0.00000000    0.00000000    0.00000000
     atom    3 type  1   force =     0.19264424    0.16703352   -0.00799565
     atom    4 type  2   force =     0.00000000    0.00000000    0.00000000
     atom    5 type  3   force =    -0.00160951    0.04773483    0.00486658
     atom    6 type  3   force =    -0.03067433   -0.04556641   -0.01424058
     atom    7 type  3   force =    -0.04053483    0.02526129    0.00486658
     atom    8 type  3   force =     0.05479883    0.00378154   -0.01424058
     atom    9 type  1   force =    -0.24097739   -0.08331805   -0.00799565
     atom   10 type  2   force =     0.00000000    0.00000000    0.00000000
     atom   11 type  1   force =     0.24097739    0.08331805    0.00799565
     atom   12 type  1   force =     0.00000000    0.00000000    0.00000000
     atom   13 type  3   force =     0.04053483   -0.02526129   -0.00486658
     atom   14 type  3   force =    -0.05479883   -0.00378154    0.01424058
     atom   15 type  3   force =     0.00160951   -0.04773483   -0.00486658
     atom   16 type  3   force =     0.03067433    0.04556641    0.01424058
     The ionic contribution  to forces
     atom    1 type  1   force =     1.02447202    4.00174992   -9.10123864
     atom    2 type  1   force =     0.00000000   -0.00000000   -0.00000000
     atom    3 type  1   force =    -1.02447202   -4.00174992    9.10123864
     atom    4 type  2   force =     0.00000000   -0.00000000    0.00000000
     atom    5 type  3   force =    -1.09245414   -0.79071476   -0.69201782
     atom    6 type  3   force =     2.19668863    1.34619361    1.03234265
     atom    7 type  3   force =     1.23100604    0.55073604   -0.69201770
     atom    8 type  3   force =    -2.26418247   -1.22929102    1.03234252
     atom    9 type  1   force =     3.97785316   -1.11365632    9.10123860
     atom   10 type  2   force =     0.00000000   -0.00000000    0.00000000
     atom   11 type  1   force =    -3.97785316    1.11365632   -9.10123860
     atom   12 type  1   force =     0.00000000   -0.00000000   -0.00000000
     atom   13 type  3   force =    -1.23100604   -0.55073604    0.69201770
     atom   14 type  3   force =     2.26418247    1.22929102   -1.03234252
     atom   15 type  3   force =     1.09245414    0.79071476    0.69201782
     atom   16 type  3   force =    -2.19668863   -1.34619361   -1.03234265
     The local contribution  to forces
     atom    1 type  1   force =    -0.85303242   -3.84847044    9.09271377
     atom    2 type  1   force =     0.00000000    0.00000000   -0.00000000
     atom    3 type  1   force =     0.85303242    3.84847044   -9.09271377
     atom    4 type  2   force =    -0.00000000   -0.00000000   -0.00000000
     atom    5 type  3   force =     1.09021334    0.75843864    0.68085181
     atom    6 type  3   force =    -2.15903437   -1.30908878   -1.01108702
     atom    7 type  3   force =    -1.20193367   -0.56493354    0.68085169
     atom    8 type  3   force =     2.21322163    1.21523385   -1.01108690
     atom    9 type  1   force =    -3.75938938    1.18548747   -9.09271377
     atom   10 type  2   force =    -0.00000000   -0.00000000   -0.00000000
     atom   11 type  1   force =     3.75938938   -1.18548747    9.09271377
     atom   12 type  1   force =    -0.00000000   -0.00000000   -0.00000000
     atom   13 type  3   force =     1.20193367    0.56493354   -0.68085169
     atom   14 type  3   force =    -2.21322163   -1.21523385    1.01108690
     atom   15 type  3   force =    -1.09021334   -0.75843864   -0.68085181
     atom   16 type  3   force =     2.15903437    1.30908878    1.01108702
     The core correction contribution to forces
     atom    1 type  1   force =     0.02095379    0.01399426    0.00073346
     atom    2 type  1   force =     0.00000000    0.00000000   -0.00000000
     atom    3 type  1   force =    -0.02095379   -0.01399426   -0.00073346
     atom    4 type  2   force =    -0.00000000    0.00000000   -0.00000000
     atom    5 type  3   force =     0.00406297   -0.01546491    0.00613093
     atom    6 type  3   force =    -0.00699992    0.00805072   -0.00699619
     atom    7 type  3   force =     0.01136241   -0.01125089    0.00613196
     atom    8 type  3   force =    -0.00347146    0.01008573   -0.00699496
     atom    9 type  1   force =     0.02255749    0.01108500   -0.00064599
     atom   10 type  2   force =    -0.00000000   -0.00000000   -0.00000000
     atom   11 type  1   force =    -0.02255749   -0.01108500    0.00064599
     atom   12 type  1   force =    -0.00000000   -0.00000000   -0.00000000
     atom   13 type  3   force =    -0.01136241    0.01125089   -0.00613196
     atom   14 type  3   force =     0.00347146   -0.01008573    0.00699496
     atom   15 type  3   force =    -0.00406297    0.01546491   -0.00613093
     atom   16 type  3   force =     0.00699992   -0.00805072    0.00699619
     The Hubbard contrib.    to forces
     atom    1 type  1   force =     0.00000000    0.00000000    0.00000000
     atom    2 type  1   force =     0.00000000    0.00000000    0.00000000
     atom    3 type  1   force =     0.00000000    0.00000000    0.00000000
     atom    4 type  2   force =     0.00000000    0.00000000    0.00000000
     atom    5 type  3   force =     0.00000000    0.00000000    0.00000000
     atom    6 type  3   force =     0.00000000    0.00000000    0.00000000
     atom    7 type  3   force =     0.00000000    0.00000000    0.00000000
     atom    8 type  3   force =     0.00000000    0.00000000    0.00000000
     atom    9 type  1   force =     0.00000000    0.00000000    0.00000000
     atom   10 type  2   force =     0.00000000    0.00000000    0.00000000
     atom   11 type  1   force =     0.00000000    0.00000000    0.00000000
     atom   12 type  1   force =     0.00000000    0.00000000    0.00000000
     atom   13 type  3   force =     0.00000000    0.00000000    0.00000000
     atom   14 type  3   force =     0.00000000    0.00000000    0.00000000
     atom   15 type  3   force =     0.00000000    0.00000000    0.00000000
     atom   16 type  3   force =     0.00000000    0.00000000    0.00000000
     The SCF correction term to forces
     atom    1 type  1   force =     0.00004218    0.00000930    0.00003357
     atom    2 type  1   force =    -0.00000000    0.00000000    0.00000000
     atom    3 type  1   force =    -0.00004218   -0.00000930   -0.00003357
     atom    4 type  2   force =    -0.00000000    0.00000000   -0.00000000
     atom    5 type  3   force =    -0.00000657    0.00000135    0.00000772
     atom    6 type  3   force =     0.00000785   -0.00000072    0.00001232
     atom    7 type  3   force =     0.00000212    0.00000637    0.00000772
     atom    8 type  3   force =    -0.00000330   -0.00000715    0.00001232
     atom    9 type  1   force =     0.00002921    0.00003187   -0.00003406
     atom   10 type  2   force =    -0.00000000   -0.00000000   -0.00000000
     atom   11 type  1   force =    -0.00002921   -0.00003187    0.00003406
     atom   12 type  1   force =     0.00000000    0.00000000    0.00000000
     atom   13 type  3   force =    -0.00000212   -0.00000637   -0.00000772
     atom   14 type  3   force =     0.00000330    0.00000715   -0.00001232
     atom   15 type  3   force =     0.00000657   -0.00000135   -0.00000772
     atom   16 type  3   force =    -0.00000785    0.00000072   -0.00001232

     Total force =     0.001264     Total SCF correction =     0.000115
     Energy error            =      1.4E-05 Ry
     Gradient error          =      4.1E-04 Ry/Bohr

     bfgs converged in  44 scf cycles and  27 bfgs steps
     (criteria: energy <  1.0E-04 Ry, force <  1.0E-03 Ry/Bohr)

     End of BFGS Geometry Optimization

     Final energy             =   -2624.4319467163 Ry

     File ./tutorial.bfgs deleted, as requested
Begin final coordinates

ATOMIC_POSITIONS (angstrom)
Ni           -0.3508852059       -0.2057708309        0.1399061966
Ni           -0.0000000000        0.0000000000        2.5225330000
Ni            0.3508852059        0.2057708309        4.9051598034
Mn           -0.0000000000        0.0000000000        7.5675990000
As           -0.2323501202        1.9832432392        6.2476150279
As           -0.0761509141        2.0051988728       11.2286026896
As            2.0444401013        1.1928426948        3.7250820279
As            1.9473263618        1.0685480310        8.7060696896
Ni            3.2921586802       -0.2009900866        2.3826268034
Mn            3.6458040500        0.0000000000        5.0450660000
Ni            3.9994494198        0.2009900866        7.7075051966
Ni            3.6458040500       -0.0000000000       10.0901320000
As            3.4242659737        1.9645162297       11.4101159721
As            3.5213797132        2.0888108935       16.5192603104
As            5.7010561952        1.1741156853        8.8875829721
As            5.5448569891        1.1521600517       13.9967273104
End final coordinates

     Writing all to output data dir ./tutorial.save/

     General routines

     Parallel routines

   This run was terminated on:  14:10:43  30May2023

   JOB DONE.