     Program PWSCF v.7.2 starts on 30May2023 at 15:17: 5

     Waiting for input...
     Reading input from standard input
Warning: card &CELL ignored
Warning: card / ignored

     Current dimensions of program PWSCF are:
     Max number of different atomic species (ntypx) = 10
     Max number of k-points (npk) =  40000
     Max angular momentum in pseudopotentials (lmaxx) =  4
     file Mn.pbesol-spn-rrkjus_psl.0.3.1.UPF: wavefunction(s)  3D renormalized
     Message from routine setup:
     using ibrav=0 with symmetry is DISCOURAGED, use correct ibrav instead

     K-points division:     npool     =       2
     R & G space division:  proc/nbgrp/npool/nimage =      14
     Subspace diagonalization in iterative solution of the eigenvalue problem:
     a serial algorithm will be used

     Using Slab Decomposition

     bravais-lattice index     =            0
     lattice parameter (alat)  =      11.7626  a.u.
     unit-cell volume          =     783.8099 (a.u.)^3
     number of atoms/cell      =            8
     number of atomic types    =            3
     number of electrons       =        83.00
     number of Kohn-Sham states=           50
     kinetic-energy cutoff     =      40.4242  Ry
     charge density cutoff     =     161.6969  Ry
     scf convergence threshold =      1.0E-06
     mixing beta               =       0.7000
     number of iterations used =            8  plain     mixing
     energy convergence thresh.=      1.0E-04
     force convergence thresh. =      1.0E-03
     Exchange-correlation= PBESOL
                           (   1   4  10   8   0   0   0)
     nstep                     =           50

     celldm(1)=  11.762627  celldm(2)=   0.000000  celldm(3)=   0.000000
     celldm(4)=   0.000000  celldm(5)=   0.000000  celldm(6)=   0.000000

     crystal axes: (cart. coord. in units of alat)
               a(1) = (   0.585717   0.000000   0.810516 )
               a(2) = (  -0.585717   1.014492   1.621031 )
               a(3) = (   0.000000   0.000000   0.810516 )

     reciprocal axes: (cart. coord. in units 2 pi/alat)
               b(1) = (  1.707309  0.985715  0.000000 )
               b(2) = (  0.000000  0.985715  0.000000 )
               b(3) = ( -1.707309 -2.957146  1.233783 )

     PseudoPot. # 1 for Mn read from file:
     /home/valmzztt/Intermetallic_alloys/pseudos/Mn.pbesol-spn-rrkjus_psl.0.3.1.UPF
     MD5 check sum: 61e28eea34dae291f95a967fe31318f1
     Pseudo is Ultrasoft + core correction, Zval = 15.0
     Generated using &quot;atomic&quot; code by A. Dal Corso  v.6.3
     Using radial grid of 1187 points,  6 beta functions with:
                l(1) =   0
                l(2) =   0
                l(3) =   1
                l(4) =   1
                l(5) =   2
                l(6) =   2
     Q(r) pseudized with 0 coefficients

     PseudoPot. # 2 for Ni read from file:
     /home/valmzztt/Intermetallic_alloys/pseudos/Ni.pbesol-spn-rrkjus_psl.1.0.0.UPF
     MD5 check sum: 6fc0a587bf949a08f2faed986b854013
     Pseudo is Ultrasoft + core correction, Zval = 18.0
     Generated using &quot;atomic&quot; code by A. Dal Corso  v.6.3
     Using radial grid of 1195 points,  6 beta functions with:
                l(1) =   0
                l(2) =   0
                l(3) =   1
                l(4) =   1
                l(5) =   2
                l(6) =   2
     Q(r) pseudized with 0 coefficients

     PseudoPot. # 3 for As read from file:
     /home/valmzztt/Intermetallic_alloys/pseudos/As.pbesol-n-rrkjus_psl.1.0.0.UPF
     MD5 check sum: 2fb13bbab3d0b4e108be5408f3d6fe7c
     Pseudo is Ultrasoft + core correction, Zval =  5.0
     Generated using &quot;atomic&quot; code by A. Dal Corso  v.6.3
     Using radial grid of 1209 points,  4 beta functions with:
                l(1) =   0
                l(2) =   0
                l(3) =   1
                l(4) =   1
     Q(r) pseudized with 0 coefficients

     atomic species   valence    mass     pseudopotential
        Mn            15.00    54.93804     Mn( 1.00)
        Ni            18.00    58.69340     Ni( 1.00)
        As             5.00    74.92159     As( 1.00)

      4 Sym. Ops., with inversion, found

   Cartesian axes

     site n.     atom                  positions (alat units)
         1           Mn  tau(   1) = (  -0.2928585   0.5072458   0.8105156  )
         2           Ni  tau(   2) = (  -0.2928585   0.5072458   1.2157734  )
         3           As  tau(   3) = (  -0.2928585   0.8454097   1.8236601  )
         4           Mn  tau(   4) = (   0.0000000   0.0000000   0.0000000  )
         5           Mn  tau(   5) = (   0.0000000   0.0000000   0.4052578  )
         6           As  tau(   6) = (  -0.0000000   0.3381639   1.0131445  )
         7           As  tau(   7) = (   0.0000000   0.6763278   2.2289179  )
         8           As  tau(   8) = (   0.2928585   0.1690819   1.4184023  )

     number of k points=     2  Gaussian smearing, width (Ry)=  0.0147
                       cart. coord. in units 2pi/alat
        k(    1) = (   0.0000000   0.0000000   0.0000000), wk =   1.0000000
        k(    2) = (   0.8536545   1.4785730  -0.6168913), wk =   1.0000000

     Check: negative core charge=   -0.000079

     Initial potential from superposition of free atoms

     starting charge      82.9975, renormalised to      83.0000
     Starting wfcs are   56 randomized atomic wfcs

     Self-consistent Calculation

     iteration #  1     ecut=    40.42 Ry     beta= 0.70
     Davidson diagonalization with overlap
     ethr =  1.00E-02,  avg # of iterations =  2.0

     total energy              =   -1060.18270020 Ry
     estimated scf accuracy    <       1.76162166 Ry

[...]

     End of self-consistent calculation

          k = 0.0000 0.0000 0.0000 (  3355 PWs)   bands (ev):

   -90.3089 -65.2382 -65.1830 -65.0031 -50.3533 -50.2125 -50.1800 -34.5922
   -34.2226 -34.1192 -34.0732 -34.0589 -33.9503 -33.9470 -33.9023 -33.8129
    -1.0755   1.2808   1.8194   2.5951   6.3990   6.6453   9.0350   9.0553
     9.3482   9.4129   9.5084   9.5572  10.1244  10.3455  10.5423  11.0171
    11.1091  11.7159  11.7802  12.3168  12.6778  12.7886  12.9403  13.3316
    13.3573  13.5295  13.5692  13.6349  13.8521  14.3533  15.0721  15.6797
    16.2761  16.6406

[...]

     the Fermi energy is    13.3553 ev

!    total energy              =   -1061.38407022 Ry
     estimated scf accuracy    <       0.00000019 Ry
     smearing contrib. (-TS)   =      -0.02755846 Ry
     internal energy E=F+TS    =   -1061.35651176 Ry

     The total energy is F=E-TS. E is the sum of the following terms:
     one-electron contribution =    -672.53128826 Ry
     hartree contribution      =     376.88961615 Ry
     xc contribution           =    -162.96705558 Ry
     ewald contribution        =    -602.74778406 Ry

     convergence has been achieved in  18 iterations

     Forces acting on atoms (cartesian axes, Ry/au):

     atom    1 type  1   force =     0.00000000    0.00000000    0.00000000
     atom    2 type  2   force =     0.00000000    0.00000000    0.00000000
     atom    3 type  3   force =     0.00000000    0.02592259    0.01423126
     atom    4 type  1   force =     0.00000000    0.00000000    0.00000000
     atom    5 type  1   force =     0.00000000    0.00000000    0.00000000
     atom    6 type  3   force =     0.00000000    0.02481253    0.00153138
     atom    7 type  3   force =     0.00000000   -0.02481253   -0.00153138
     atom    8 type  3   force =     0.00000000   -0.02592259   -0.01423126
     The non-local contrib.  to forces
     atom    1 type  1   force =     0.00000000    0.00000000    0.00000000
     atom    2 type  2   force =     0.00000000    0.00000000    0.00000000
     atom    3 type  3   force =     0.00000000   -0.03146997    0.01228629
     atom    4 type  1   force =     0.00000000    0.00000000    0.00000000
     atom    5 type  1   force =     0.00000000    0.00000000    0.00000000
     atom    6 type  3   force =    -0.00000000   -0.00232789    0.03254225
     atom    7 type  3   force =     0.00000000    0.00232789   -0.03254225
     atom    8 type  3   force =     0.00000000    0.03146997   -0.01228629
     The ionic contribution  to forces
     atom    1 type  1   force =    -0.00000000    0.00000000   -0.00000000
     atom    2 type  2   force =    -0.00000000    0.00000000   -0.00000000
     atom    3 type  3   force =     0.00000014    1.05837935   -0.52273608
     atom    4 type  1   force =    -0.00000000   -0.00000000    0.00000000
     atom    5 type  1   force =    -0.00000000   -0.00000000   -0.00000000
     atom    6 type  3   force =     0.00000016   -1.05837953   -0.90406835
     atom    7 type  3   force =    -0.00000016    1.05837953    0.90406835
     atom    8 type  3   force =    -0.00000014   -1.05837935    0.52273608
     The local contribution  to forces
     atom    1 type  1   force =     0.00000000    0.00000001    0.00000000
     atom    2 type  2   force =    -0.00000000    0.00000002    0.00000000
     atom    3 type  3   force =    -0.00000016   -1.01003132    0.52815267
     atom    4 type  1   force =     0.00000000   -0.00000000    0.00000000
     atom    5 type  1   force =     0.00000000   -0.00000000   -0.00000000
     atom    6 type  3   force =    -0.00000018    1.08675731    0.88135519
     atom    7 type  3   force =     0.00000018   -1.08675732   -0.88135519
     atom    8 type  3   force =     0.00000016    1.01003132   -0.52815267
     The core correction contribution to forces
     atom    1 type  1   force =     0.00000000    0.00000000    0.00000000
     atom    2 type  2   force =     0.00000000    0.00000000   -0.00000000
     atom    3 type  3   force =    -0.00000005    0.00873978   -0.00346694
     atom    4 type  1   force =     0.00000000    0.00000000   -0.00000000
     atom    5 type  1   force =    -0.00000000   -0.00000000   -0.00000000
     atom    6 type  3   force =    -0.00000001   -0.00098601   -0.00831221
     atom    7 type  3   force =     0.00000001    0.00098601    0.00831221
     atom    8 type  3   force =     0.00000005   -0.00873978    0.00346694
     The Hubbard contrib.    to forces
     atom    1 type  1   force =     0.00000000    0.00000000    0.00000000
     atom    2 type  2   force =     0.00000000    0.00000000    0.00000000
     atom    3 type  3   force =     0.00000000    0.00000000    0.00000000
     atom    4 type  1   force =     0.00000000    0.00000000    0.00000000
     atom    5 type  1   force =     0.00000000    0.00000000    0.00000000
     atom    6 type  3   force =     0.00000000    0.00000000    0.00000000
     atom    7 type  3   force =     0.00000000    0.00000000    0.00000000
     atom    8 type  3   force =     0.00000000    0.00000000    0.00000000
     The SCF correction term to forces
     atom    1 type  1   force =    -0.00000000   -0.00000000    0.00000000
     atom    2 type  2   force =     0.00000000   -0.00000000   -0.00000000
     atom    3 type  3   force =    -0.00000000    0.00030474   -0.00000468
     atom    4 type  1   force =    -0.00000000    0.00000000    0.00000000
     atom    5 type  1   force =     0.00000000    0.00000000   -0.00000000
     atom    6 type  3   force =     0.00000000   -0.00025137    0.00001450
     atom    7 type  3   force =    -0.00000000    0.00025137   -0.00001450
     atom    8 type  3   force =     0.00000000   -0.00030474    0.00000468

     Total force =     0.054635     Total SCF correction =     0.000559

     BFGS Geometry Optimization
     Energy error            =      0.0E+00 Ry
     Gradient error          =      2.6E-02 Ry/Bohr

     number of scf cycles    =   1
     number of bfgs steps    =   0

     energy             new  =   -1061.3840702240 Ry

     new trust radius        =       0.0295721056 bohr
     new conv_thr            =       0.0000010000 Ry

ATOMIC_POSITIONS (angstrom)
Mn           -1.8229020250        3.1573589245        5.0450660000
Ni           -1.8229020250        3.1573589245        7.5675990000
As           -1.8229020432        5.2759825277       11.3589293599
Mn            0.0000000000        0.0000000000        0.0000000000
Mn            0.0000000000        0.0000000000        2.5225330000
As           -0.0000000182        2.1180361834        6.3071428708
As            0.0000000182        4.1966816656       13.8731211292
As            1.8229020432        1.0387353213        8.8213346401

     Writing config-only to output data dir ./tutorial.save/
     NEW-OLD atomic charge density approx. for the potential

[...]

     Total force =     0.051740     Total SCF correction =     0.001037
     Energy error            =      2.9E-03 Ry
     Gradient error          =      2.5E-02 Ry/Bohr

[...]

     energy             old  =   -1061.3840702240 Ry
     energy             new  =   -1061.3869762313 Ry

     CASE: energy            _new < energy            _old

     WARNING: bfgs curvature condition failed, Theta= 0.846
     new trust radius        =       0.0325293161 bohr
     new conv_thr            =       0.0000002523 Ry

[...]

     Threshold (ethr) on eigenvalues was too large:
     Diagonalizing with lowered threshold

     Davidson diagonalization with overlap
     ethr =  8.81E-08,  avg # of iterations =  1.0

[...]

     WARNING: bfgs curvature condition failed, Theta= 0.943
     new trust radius        =       0.0030897602 bohr
     new conv_thr            =       0.0000000100 Ry

[...]

     Threshold (ethr) on eigenvalues was too large:
     Diagonalizing with lowered threshold

     Davidson diagonalization with overlap
     ethr =  5.76E-08,  avg # of iterations =  1.5

[...]

     number of scf cycles    =   9
     number of bfgs steps    =   8

     energy             old  =   -1061.3989592264 Ry
     energy             new  =   -1061.3989810262 Ry

     CASE: energy            _new < energy            _old

     new trust radius        =       0.0069519604 bohr
     new conv_thr            =       0.0000000100 Ry

ATOMIC_POSITIONS (angstrom)
Mn           -1.8229020250        3.1573589245        5.0450660000
Ni           -1.8229020250        3.1573589245        7.5675990000
As           -1.8229020432        5.3911135271       11.3983321380
Mn            0.0000000000        0.0000000000        0.0000000000
Mn            0.0000000000        0.0000000000        2.5225330000
As           -0.0000000182        2.2260392172        6.3185744146
As            0.0000000182        4.0886786318       13.8616895854
As            1.8229020432        0.9236043219        8.7819318620

     Writing config-only to output data dir ./tutorial.save/
     NEW-OLD atomic charge density approx. for the potential

     Check: negative core charge=   -0.000079

     Self-consistent Calculation

[...]

     total energy              =   -1061.39900288 Ry
     estimated scf accuracy    <       0.00000002 Ry

     iteration # 11     ecut=    40.42 Ry     beta= 0.70
     Davidson diagonalization with overlap
     ethr =  2.97E-11,  avg # of iterations =  2.0

     End of self-consistent calculation

[...]

          k = 0.8537 1.4786-0.6169 (  3408 PWs)   bands (ev):

   -90.4207 -65.4821 -65.3385 -65.2707 -50.4946 -50.4548 -50.2626 -34.6452
   -34.5556 -34.4296 -34.4011 -34.2081 -34.1785 -34.1477 -34.0687 -34.0072
     1.5505   1.6726   1.7466   1.8220   6.4738   6.7329   6.7569   6.7573
     9.5885   9.8133   9.8134   9.8449  10.0694  10.2619  10.4740  10.5740
    11.0605  11.3239  11.4339  12.1485  12.1673  12.2068  12.5002  12.9793
    12.9968  13.0722  13.0783  13.1076  13.8966  14.4786  14.5363  14.5625
    15.2728  16.3215

     the Fermi energy is    13.1499 ev

!    total energy              =   -1061.39900288 Ry
     estimated scf accuracy    <          2.4E-09 Ry
     smearing contrib. (-TS)   =      -0.02718387 Ry
     internal energy E=F+TS    =   -1061.37181900 Ry

     The total energy is F=E-TS. E is the sum of the following terms:
     one-electron contribution =    -673.02189980 Ry
     hartree contribution      =     376.77087844 Ry
     xc contribution           =    -162.95880443 Ry
     ewald contribution        =    -602.16199321 Ry

     convergence has been achieved in  11 iterations

     Forces acting on atoms (cartesian axes, Ry/au):

     atom    1 type  1   force =     0.00000000    0.00000000    0.00000000
     atom    2 type  2   force =     0.00000000    0.00000000    0.00000000
     atom    3 type  3   force =     0.00000000    0.00018319   -0.00057708
     atom    4 type  1   force =     0.00000000    0.00000000    0.00000000
     atom    5 type  1   force =     0.00000000    0.00000000    0.00000000
     atom    6 type  3   force =     0.00000000   -0.00010000    0.00071781
     atom    7 type  3   force =     0.00000000    0.00010000   -0.00071781
     atom    8 type  3   force =     0.00000000   -0.00018319    0.00057708
     The non-local contrib.  to forces
     atom    1 type  1   force =     0.00000000    0.00000000    0.00000000
     atom    2 type  2   force =     0.00000000    0.00000000    0.00000000
     atom    3 type  3   force =     0.00000000   -0.05482351   -0.00354821
     atom    4 type  1   force =     0.00000000    0.00000000    0.00000000
     atom    5 type  1   force =     0.00000000    0.00000000    0.00000000
     atom    6 type  3   force =     0.00000000   -0.02644582    0.04368893
     atom    7 type  3   force =     0.00000000    0.02644582   -0.04368893
     atom    8 type  3   force =     0.00000000    0.05482351    0.00354821
     The ionic contribution  to forces
     atom    1 type  1   force =    -0.00000000    0.00000000    0.00000000
     atom    2 type  2   force =    -0.00000000    0.00000000   -0.00000000
     atom    3 type  3   force =     0.00000017    0.02148324   -0.79281639
     atom    4 type  1   force =     0.00000000   -0.00000000    0.00000000
     atom    5 type  1   force =     0.00000000   -0.00000000   -0.00000000
     atom    6 type  3   force =     0.00000019   -1.85995939   -1.14957320
     atom    7 type  3   force =    -0.00000019    1.85995939    1.14957320
     atom    8 type  3   force =    -0.00000017   -0.02148324    0.79281639
     The local contribution  to forces
     atom    1 type  1   force =    -0.00000000    0.00000001    0.00000000
     atom    2 type  2   force =    -0.00000000    0.00000002   -0.00000000
     atom    3 type  3   force =    -0.00000020    0.01219210    0.79449752
     atom    4 type  1   force =     0.00000000   -0.00000000    0.00000000
     atom    5 type  1   force =     0.00000000    0.00000000   -0.00000000
     atom    6 type  3   force =    -0.00000022    1.87527743    1.11639887
     atom    7 type  3   force =     0.00000022   -1.87527744   -1.11639887
     atom    8 type  3   force =     0.00000020   -0.01219210   -0.79449752
     The core correction contribution to forces
     atom    1 type  1   force =    -0.00000000    0.00000000    0.00000000
     atom    2 type  2   force =    -0.00000000    0.00000000   -0.00000000
     atom    3 type  3   force =     0.00000009    0.02133400    0.00126548
     atom    4 type  1   force =     0.00000000    0.00000000   -0.00000000
     atom    5 type  1   force =     0.00000000   -0.00000000   -0.00000000
     atom    6 type  3   force =     0.00000003    0.01103305   -0.00982295
     atom    7 type  3   force =    -0.00000003   -0.01103305    0.00982295
     atom    8 type  3   force =    -0.00000009   -0.02133400   -0.00126548
     The Hubbard contrib.    to forces
     atom    1 type  1   force =     0.00000000    0.00000000    0.00000000
     atom    2 type  2   force =     0.00000000    0.00000000    0.00000000
     atom    3 type  3   force =     0.00000000    0.00000000    0.00000000
     atom    4 type  1   force =     0.00000000    0.00000000    0.00000000
     atom    5 type  1   force =     0.00000000    0.00000000    0.00000000
     atom    6 type  3   force =     0.00000000    0.00000000    0.00000000
     atom    7 type  3   force =     0.00000000    0.00000000    0.00000000
     atom    8 type  3   force =     0.00000000    0.00000000    0.00000000
     The SCF correction term to forces
     atom    1 type  1   force =    -0.00000000   -0.00000000    0.00000000
     atom    2 type  2   force =    -0.00000000    0.00000000    0.00000000
     atom    3 type  3   force =    -0.00000000   -0.00000263    0.00002453
     atom    4 type  1   force =    -0.00000000   -0.00000000   -0.00000000
     atom    5 type  1   force =    -0.00000000   -0.00000000   -0.00000000
     atom    6 type  3   force =     0.00000000   -0.00000526    0.00002616
     atom    7 type  3   force =    -0.00000000    0.00000526   -0.00002616
     atom    8 type  3   force =     0.00000000    0.00000263   -0.00002453

     Total force =     0.001336     Total SCF correction =     0.000051
     Energy error            =      2.2E-05 Ry
     Gradient error          =      7.2E-04 Ry/Bohr

     bfgs converged in  10 scf cycles and   9 bfgs steps
     (criteria: energy <  1.0E-04 Ry, force <  1.0E-03 Ry/Bohr)

     End of BFGS Geometry Optimization

     Final energy             =   -1061.3990028763 Ry

     File ./tutorial.bfgs deleted, as requested
Begin final coordinates

ATOMIC_POSITIONS (angstrom)
Mn           -1.8229020250        3.1573589245        5.0450660000
Ni           -1.8229020250        3.1573589245        7.5675990000
As           -1.8229020432        5.3911135271       11.3983321380
Mn            0.0000000000        0.0000000000        0.0000000000
Mn            0.0000000000        0.0000000000        2.5225330000
As           -0.0000000182        2.2260392172        6.3185744146
As            0.0000000182        4.0886786318       13.8616895854
As            1.8229020432        0.9236043219        8.7819318620
End final coordinates

     Writing all to output data dir ./tutorial.save/

     General routines

     Parallel routines

   This run was terminated on:  15:17:20  30May2023

   JOB DONE.